&CONTROL
   calculation      = 'relax'
   tstress          = .true.
   tprnfor          = .true.
   prefix           = 'Aknew_'
/
&SYSTEM
   ecutwfc          = 80
   ecutrho          = 600
   ntyp             = 3
   nat              = 10
   ibrav            = 0
/
&ELECTRONS
   conv_thr         = 1e-06
   mixing_beta      = 0.7
/
&IONS
   ion_dynamics     = 'bfgs'
/
&CELL
   cell_dynamics    = 'bfgs'
   press            = 150
   press_conv_thr   = 0.05
/

ATOMIC_SPECIES
O 15.999 O.wc-nl-rrkjus_psl.1.0.0.UPF
Mg 24.305 Mg.wc-spnl-rrkjus_psl.1.0.0.UPF
Si 28.085 Si.wc-nl-rrkjus_psl.1.0.0.UPF

K_POINTS automatic
9 9 10  0 0 0

CELL_PARAMETERS angstrom
2.76096839100000 0.06858061168500 4.70920200237000
-1.38048419500000 2.45964937768500 4.74506803386000
-1.38048419500000 -2.32248815431500 4.67333597088000

ATOMIC_POSITIONS angstrom
O 1.3332367565 -0.5454213457 3.3846351915 
O -0.1514700165 1.5014586908 3.4153383921 
O -1.1817667401 -0.8077751101 3.3806998851 
O -1.3332367565 0.5454213457 -3.3846351915 
O 0.1514700165 -1.5014586908 -3.4153383921 
O 1.1817667401 0.8077751101 -3.3806998851 
Mg 0.0000000000 0.0742012107 5.0951498024 
Mg 0.0000000000 -0.0742012107 -5.0951498024 
Si 0.0000000000 0.0324963005 2.2314126337 
Si 0.0000000000 -0.0324963005 -2.2314126337 

