 O Mg Si 
 1.0000000000000000
     2.7528610350000000   -0.0000000000000000    4.5513659070000001
    -1.3764305170000000    2.3840475890000001    4.5513659070000001
    -1.3764305170000000   -2.3840475890000001    4.5513659070000001
 O   Mg  Si 
   6   2   2
Direct
  0.5623291205703428 -0.0452089583548324  0.2041267577368651
  0.2041267576532475  0.5623291206777425 -0.0452089583786146
 -0.0452089584458807  0.2041267577167983  0.5623291206814579
 -0.5623291205703428  0.0452089583548324 -0.2041267577368651
 -0.2041267576532475 -0.5623291206777425  0.0452089583786146
  0.0452089584458807 -0.2041267577167983 -0.5623291206814579
  0.3603826694414459  0.3603826695723580  0.3603826695723580
 -0.3603826694414459 -0.3603826695723580 -0.3603826695723580
  0.1578189263259740  0.1578189263833031  0.1578189263833031
 -0.1578189263259740 -0.1578189263833031 -0.1578189263833031
