
     Program PWSCF v.7.0 starts on  4Aug2025 at 13:12:36 

     This program is part of the open-source Quantum ESPRESSO suite
     for quantum simulation of materials; please cite
         "P. Giannozzi et al., J. Phys.:Condens. Matter 21 395502 (2009);
         "P. Giannozzi et al., J. Phys.:Condens. Matter 29 465901 (2017);
         "P. Giannozzi et al., J. Chem. Phys. 152 154105 (2020);
          URL http://www.quantum-espresso.org", 
     in publications or presentations arising from this work. More details at
     http://www.quantum-espresso.org/quote

     Parallel version (MPI & OpenMP), running on      16 processor cores
     Number of MPI processes:                16
     Threads/MPI process:                     1

     MPI processes distributed on     1 nodes
     K-points division:     npool     =       4
     R & G space division:  proc/nbgrp/npool/nimage =       4
     4129 MiB available memory on the printing compute node when the environment starts

     Waiting for input...
     Reading input from standard input
Warning: card &CELL ignored
Warning: card    CELL_DYNAMICS    = 'BFGS' ignored
Warning: card    PRESS            = 150 ignored
Warning: card    PRESS_CONV_THR   = 0.05 ignored
Warning: card / ignored

     Current dimensions of program PWSCF are:
     Max number of different atomic species (ntypx) = 10
     Max number of k-points (npk) =  40000
     Max angular momentum in pseudopotentials (lmaxx) =  4
     file O.pbe-nl-rrkjus_psl.1.0.0.UPF: wavefunction(s)  2S renormalized
     file Mg.pbe-spnl-rrkjus_psl.1.0.0.UPF: wavefunction(s)  2P renormalized
     Message from routine setup:
     using ibrav=0 with symmetry is DISCOURAGED, use correct ibrav instead

     Subspace diagonalization in iterative solution of the eigenvalue problem:
     one sub-group per band group will be used
     scalapack distributed-memory algorithm (size of sub-group:  2*  2 procs)


     Parallelization info
     --------------------
     sticks:   dense  smooth     PW     G-vecs:    dense   smooth      PW
     Min         967     516    152                38631    15066    2406
     Max         968     517    153                38633    15067    2407
     Sum        3869    2067    611               154527    60265    9627

     Using Slab Decomposition



     bravais-lattice index     =            0
     lattice parameter (alat)  =      10.0517  a.u.
     unit-cell volume          =     622.7320 (a.u.)^3
     number of atoms/cell      =           10
     number of atomic types    =            3
     number of electrons       =        64.00
     number of Kohn-Sham states=           32
     kinetic-energy cutoff     =      80.0000  Ry
     charge density cutoff     =     600.0000  Ry
     scf convergence threshold =      1.0E-06
     mixing beta               =       0.7000
     number of iterations used =            8  plain     mixing
     energy convergence thresh.=      1.0E-04
     force convergence thresh. =      1.0E-03
     Exchange-correlation= PBE
                           (   1   4   3   4   0   0   0)
     nstep                     =           50


     celldm(1)=  10.051705  celldm(2)=   0.000000  celldm(3)=   0.000000
     celldm(4)=   0.000000  celldm(5)=   0.000000  celldm(6)=   0.000000

     crystal axes: (cart. coord. in units of alat)
               a(1) = (   1.000000   0.000000   0.000000 )  
               a(2) = (   0.598229   0.801325   0.012020 )  
               a(3) = (   0.598229   0.311088   0.769864 )  

     reciprocal axes: (cart. coord. in units 2 pi/alat)
               b(1) = (  1.000000 -0.739376 -0.478290 )  
               b(2) = (  0.000000  1.255543 -0.507343 )  
               b(3) = (  0.000000 -0.019603  1.306853 )  


     PseudoPot. # 1 for O  read from file:
     /home/tim/espresso/pseudo/O.pbe-nl-rrkjus_psl.1.0.0.UPF
     MD5 check sum: 233c8028909f741e7889d61785a595bc
     Pseudo is Ultrasoft + core correction, Zval =  6.0
     Generated using 'atomic' code by A. Dal Corso  v.7.0
     Using radial grid of 1095 points,  4 beta functions with: 
                l(1) =   0
                l(2) =   0
                l(3) =   1
                l(4) =   1
     Q(r) pseudized with 0 coefficients 


     PseudoPot. # 2 for Mg read from file:
     /home/tim/espresso/pseudo/Mg.pbe-spnl-rrkjus_psl.1.0.0.UPF
     MD5 check sum: 37caad9c05fe2a5f639d8b65b442f5f9
     Pseudo is Ultrasoft + core correction, Zval = 10.0
     Generated using 'atomic' code by A. Dal Corso  v.7.0
     Using radial grid of 1129 points,  4 beta functions with: 
                l(1) =   0
                l(2) =   0
                l(3) =   1
                l(4) =   1
     Q(r) pseudized with 0 coefficients 


     PseudoPot. # 3 for Si read from file:
     /home/tim/espresso/pseudo/Si.pbe-nl-rrkjus_psl.1.0.0.UPF
     MD5 check sum: ceeb670d53204f1f4f48a0a0dd9ca3d4
     Pseudo is Ultrasoft + core correction, Zval =  4.0
     Generated using 'atomic' code by A. Dal Corso  v.7.0
     Using radial grid of 1141 points,  4 beta functions with: 
                l(1) =   0
                l(2) =   0
                l(3) =   1
                l(4) =   1
     Q(r) pseudized with 0 coefficients 


     atomic species   valence    mass     pseudopotential
        O              6.00    15.99900     O ( 1.00)
        Mg            10.00    24.30500     Mg( 1.00)
        Si             4.00    28.08500     Si( 1.00)

      2 Sym. Ops., with inversion, found



   Cartesian axes

     site n.     atom                  positions (alat units)
         1           O   tau(   1) = (   1.2556278   0.8285992   0.1686262  )
         2           O   tau(   2) = (   1.1117127   0.7476324   0.7418179  )
         3           O   tau(   3) = (   1.4133075   0.3385057   0.4353703  )
         4           O   tau(   4) = (   0.9408310   0.2838137   0.6132572  )
         5           O   tau(   5) = (   1.0847462   0.3647805   0.0400655  )
         6           O   tau(   6) = (   0.7831513   0.7739072   0.3465132  )
         7           Mg  tau(   7) = (   0.7915657   0.4008944   0.2817772  )
         8           Mg  tau(   8) = (   1.4048931   0.7115186   0.5001062  )
         9           Si  tau(   9) = (   0.3466428   0.1755598   0.1233960  )
        10           Si  tau(  10) = (   1.8498160   0.9368531   0.6584874  )

     number of k points=   406

     Number of k-points >= 100: set verbosity='high' to print them.

     Dense  grid:   154527 G-vectors     FFT dimensions: (  80,  80,  81)

     Smooth grid:    60265 G-vectors     FFT dimensions: (  60,  60,  60)

     Estimated max dynamical RAM per process >     135.05 MB

     Estimated total dynamical RAM >       2.00 GB

     Check: negative core charge=   -0.000002

     Initial potential from superposition of free atoms

     starting charge      63.9970, renormalised to      64.0000
     Starting wfcs are   42 randomized atomic wfcs

     total cpu time spent up to now is        9.9 secs

     per-process dynamical memory:   133.0 Mb

     Self-consistent Calculation

     iteration #  1     ecut=    80.00 Ry     beta= 0.70
     Davidson diagonalization with overlap
     ethr =  1.00E-02,  avg # of iterations =  2.0

     total cpu time spent up to now is       23.5 secs

     total energy              =    -468.52645109 Ry
     estimated scf accuracy    <       2.07949087 Ry

     iteration #  2     ecut=    80.00 Ry     beta= 0.70
     Davidson diagonalization with overlap
     ethr =  3.25E-03,  avg # of iterations =  3.0

     total cpu time spent up to now is       40.0 secs

     total energy              =    -469.22619275 Ry
     estimated scf accuracy    <       1.42273616 Ry

     iteration #  3     ecut=    80.00 Ry     beta= 0.70
     Davidson diagonalization with overlap
     ethr =  2.22E-03,  avg # of iterations =  2.0

     total cpu time spent up to now is       53.6 secs

     total energy              =    -469.41906695 Ry
     estimated scf accuracy    <       0.05413879 Ry

     iteration #  4     ecut=    80.00 Ry     beta= 0.70
     Davidson diagonalization with overlap
     ethr =  8.46E-05,  avg # of iterations =  5.2

     total cpu time spent up to now is       73.7 secs

     total energy              =    -469.47441797 Ry
     estimated scf accuracy    <       0.07249057 Ry

     iteration #  5     ecut=    80.00 Ry     beta= 0.70
     Davidson diagonalization with overlap
     ethr =  8.46E-05,  avg # of iterations =  2.0

     total cpu time spent up to now is       86.8 secs

     total energy              =    -469.46686035 Ry
     estimated scf accuracy    <       0.02602604 Ry

     iteration #  6     ecut=    80.00 Ry     beta= 0.70
     Davidson diagonalization with overlap
     ethr =  4.07E-05,  avg # of iterations =  2.0

     total cpu time spent up to now is      100.6 secs

     total energy              =    -469.47084062 Ry
     estimated scf accuracy    <       0.00123906 Ry

     iteration #  7     ecut=    80.00 Ry     beta= 0.70
     Davidson diagonalization with overlap
     ethr =  1.94E-06,  avg # of iterations =  5.5

     total cpu time spent up to now is      120.1 secs

     total energy              =    -469.47187534 Ry
     estimated scf accuracy    <       0.00005416 Ry

     iteration #  8     ecut=    80.00 Ry     beta= 0.70
     Davidson diagonalization with overlap
     ethr =  8.46E-08,  avg # of iterations =  5.4

     total cpu time spent up to now is      142.5 secs

     total energy              =    -469.47151780 Ry
     estimated scf accuracy    <       0.00142315 Ry

     iteration #  9     ecut=    80.00 Ry     beta= 0.70
     Davidson diagonalization with overlap
     ethr =  8.46E-08,  avg # of iterations =  4.9

     total cpu time spent up to now is      163.6 secs

     total energy              =    -469.47163906 Ry
     estimated scf accuracy    <       0.00008315 Ry

     iteration # 10     ecut=    80.00 Ry     beta= 0.70
     Davidson diagonalization with overlap
     ethr =  8.46E-08,  avg # of iterations =  3.0

     total cpu time spent up to now is      179.4 secs

     End of self-consistent calculation

     Number of k-points >= 100: set verbosity='high' to print the bands.

     highest occupied level (ev):     7.2624

!    total energy              =    -469.47166040 Ry
     estimated scf accuracy    <       0.00000012 Ry

     The total energy is the sum of the following terms:
     one-electron contribution =    -223.20262621 Ry
     hartree contribution      =     143.84491349 Ry
     xc contribution           =     -91.09026520 Ry
     ewald contribution        =    -299.02368248 Ry

     convergence has been achieved in  10 iterations

     Forces acting on atoms (cartesian axes, Ry/au):

     atom    1 type  1   force =    -0.00794038   -0.00614525   -0.01077892
     atom    2 type  1   force =    -0.00189079    0.00102719    0.00153370
     atom    3 type  1   force =     0.00077936   -0.00149463   -0.00680458
     atom    4 type  1   force =     0.00794038    0.00614525    0.01077892
     atom    5 type  1   force =     0.00189079   -0.00102719   -0.00153370
     atom    6 type  1   force =    -0.00077936    0.00149463    0.00680458
     atom    7 type  2   force =     0.00259287    0.00343625   -0.00277048
     atom    8 type  2   force =    -0.00259287   -0.00343625    0.00277048
     atom    9 type  3   force =     0.00509712   -0.01351898    0.00085785
     atom   10 type  3   force =    -0.00509712    0.01351898   -0.00085785

     Total force =     0.031900     Total SCF correction =     0.000946


     Computing stress (Cartesian axis) and pressure

          total   stress  (Ry/bohr**3)                   (kbar)     P=      -39.34
  -0.00012502   0.00003242   0.00006124          -18.39        4.77        9.01
   0.00003242  -0.00003809  -0.00021533            4.77       -5.60      -31.68
   0.00006124  -0.00021533  -0.00063908            9.01      -31.68      -94.01


     BFGS Geometry Optimization
     Energy error            =      0.0E+00 Ry
     Gradient error          =      1.4E-02 Ry/Bohr

     number of scf cycles    =   1
     number of bfgs steps    =   0

     energy             new  =    -469.4716604022 Ry

     new trust radius        =       0.0147308842 bohr
     new conv_thr            =       0.0000010000 Ry


ATOMIC_POSITIONS (angstrom)
O             6.6746495221        4.4041775162        0.8912413140
O             5.9123468807        3.9772998552        3.9466398937
O             7.5179828764        1.7997660918        2.3121915353
O             5.0086069921        1.5128949427        3.2677005835
O             5.7709096335        1.9397726037        0.2123020039
O             4.1652736378        4.1173063671        1.8467503622
Mg            4.2118152585        2.1342287565        1.4973445101
Mg            7.4714412557        3.7828437024        2.6615973874
Si            1.8465362786        0.9266720889        0.6568136990
Si            9.8367202355        4.9904003700        3.5021281986



     Writing config-only to output data dir ./Aknew_.save/
     NEW-OLD atomic charge density approx. for the potential

     Check: negative core charge=   -0.000002

     total cpu time spent up to now is      194.2 secs

     per-process dynamical memory:   137.7 Mb

     Self-consistent Calculation

     iteration #  1     ecut=    80.00 Ry     beta= 0.70
     Davidson diagonalization with overlap
     ethr =  1.00E-06,  avg # of iterations =  4.6

     total cpu time spent up to now is      215.0 secs

     total energy              =    -469.47233906 Ry
     estimated scf accuracy    <       0.00013968 Ry

     iteration #  2     ecut=    80.00 Ry     beta= 0.70
     Davidson diagonalization with overlap
     ethr =  2.18E-07,  avg # of iterations =  3.2

     total cpu time spent up to now is      230.0 secs

     total energy              =    -469.47237789 Ry
     estimated scf accuracy    <       0.00002013 Ry

     iteration #  3     ecut=    80.00 Ry     beta= 0.70
     Davidson diagonalization with overlap
     ethr =  3.15E-08,  avg # of iterations =  4.5

     total cpu time spent up to now is      246.8 secs

     total energy              =    -469.47238604 Ry
     estimated scf accuracy    <       0.00000187 Ry

     iteration #  4     ecut=    80.00 Ry     beta= 0.70
     Davidson diagonalization with overlap
     ethr =  2.93E-09,  avg # of iterations =  3.4

     total cpu time spent up to now is      261.5 secs

     End of self-consistent calculation

     Number of k-points >= 100: set verbosity='high' to print the bands.

     highest occupied level (ev):     7.2745

!    total energy              =    -469.47238652 Ry
     estimated scf accuracy    <       0.00000026 Ry

     The total energy is the sum of the following terms:
     one-electron contribution =    -223.09766534 Ry
     hartree contribution      =     143.78933649 Ry
     xc contribution           =     -91.09782462 Ry
     ewald contribution        =    -299.06623305 Ry

     convergence has been achieved in   4 iterations

     Forces acting on atoms (cartesian axes, Ry/au):

     atom    1 type  1   force =    -0.00281701   -0.00433338   -0.00423037
     atom    2 type  1   force =    -0.00055191    0.00205535    0.00074507
     atom    3 type  1   force =     0.00173795   -0.00089480   -0.00513224
     atom    4 type  1   force =     0.00281701    0.00433338    0.00423037
     atom    5 type  1   force =     0.00055191   -0.00205535   -0.00074507
     atom    6 type  1   force =    -0.00173795    0.00089480    0.00513224
     atom    7 type  2   force =     0.00263166    0.00345606   -0.00244501
     atom    8 type  2   force =    -0.00263166   -0.00345606    0.00244501
     atom    9 type  3   force =     0.00087475   -0.00392231   -0.00018504
     atom   10 type  3   force =    -0.00087475    0.00392231    0.00018504

     Total force =     0.015549     Total SCF correction =     0.001578
     SCF correction compared to forces is large: reduce conv_thr to get better values


     Computing stress (Cartesian axis) and pressure

          total   stress  (Ry/bohr**3)                   (kbar)     P=      -37.77
  -0.00011663   0.00004465   0.00007126          -17.16        6.57       10.48
   0.00004465  -0.00003329  -0.00018958            6.57       -4.90      -27.89
   0.00007126  -0.00018958  -0.00062041           10.48      -27.89      -91.27

     Energy error            =      7.3E-04 Ry
     Gradient error          =      5.1E-03 Ry/Bohr

     number of scf cycles    =   2
     number of bfgs steps    =   1

     energy             old  =    -469.4716604022 Ry
     energy             new  =    -469.4723865233 Ry

     CASE: energy            _new < energy            _old

     new trust radius        =       0.0140202420 bohr
     new conv_thr            =       0.0000000513 Ry


ATOMIC_POSITIONS (angstrom)
O             6.6713571282        4.3996268517        0.8863940454
O             5.9116734577        3.9792984165        3.9474627237
O             7.5196652475        1.7988073077        2.3068420604
O             5.0118993860        1.5174456072        3.2725478521
O             5.7715830565        1.9377740424        0.2114791739
O             4.1635912667        4.1182651512        1.8520998371
Mg            4.2144824056        2.1377340566        1.4948359122
Mg            7.4687741086        3.7793384023        2.6641059853
Si            1.8477814967        0.9218792882        0.6567142482
Si            9.8354750174        4.9951931707        3.5022276494



     Writing config-only to output data dir ./Aknew_.save/
     NEW-OLD atomic charge density approx. for the potential

     Check: negative core charge=   -0.000002

     total cpu time spent up to now is      276.4 secs

     per-process dynamical memory:   137.7 Mb

     Self-consistent Calculation

     iteration #  1     ecut=    80.00 Ry     beta= 0.70
     Davidson diagonalization with overlap
     ethr =  1.00E-06,  avg # of iterations =  7.0

     total cpu time spent up to now is      302.0 secs

     total energy              =    -469.47265091 Ry
     estimated scf accuracy    <       0.00012715 Ry

     iteration #  2     ecut=    80.00 Ry     beta= 0.70
     Davidson diagonalization with overlap
     ethr =  1.99E-07,  avg # of iterations =  2.0

     total cpu time spent up to now is      314.5 secs

     total energy              =    -469.47267758 Ry
     estimated scf accuracy    <       0.00001199 Ry

     iteration #  3     ecut=    80.00 Ry     beta= 0.70
     Davidson diagonalization with overlap
     ethr =  1.87E-08,  avg # of iterations =  2.2

     total cpu time spent up to now is      328.8 secs

     total energy              =    -469.47268073 Ry
     estimated scf accuracy    <       0.00000123 Ry

     iteration #  4     ecut=    80.00 Ry     beta= 0.70
     Davidson diagonalization with overlap
     ethr =  1.92E-09,  avg # of iterations =  4.1

     total cpu time spent up to now is      344.2 secs

     total energy              =    -469.47268111 Ry
     estimated scf accuracy    <       0.00000018 Ry

     iteration #  5     ecut=    80.00 Ry     beta= 0.70
     Davidson diagonalization with overlap
     ethr =  2.78E-10,  avg # of iterations =  3.8

     total cpu time spent up to now is      361.4 secs

     End of self-consistent calculation

     Number of k-points >= 100: set verbosity='high' to print the bands.

     highest occupied level (ev):     7.2829

!    total energy              =    -469.47268116 Ry
     estimated scf accuracy    <       0.00000002 Ry

     The total energy is the sum of the following terms:
     one-electron contribution =    -222.98233426 Ry
     hartree contribution      =     143.73119234 Ry
     xc contribution           =     -91.10352393 Ry
     ewald contribution        =    -299.11801530 Ry

     convergence has been achieved in   5 iterations

     Forces acting on atoms (cartesian axes, Ry/au):

     atom    1 type  1   force =     0.00083788   -0.00207049    0.00092220
     atom    2 type  1   force =     0.00077546    0.00184721    0.00025762
     atom    3 type  1   force =     0.00152454   -0.00104717   -0.00270411
     atom    4 type  1   force =    -0.00083788    0.00207049   -0.00092220
     atom    5 type  1   force =    -0.00077546   -0.00184721   -0.00025762
     atom    6 type  1   force =    -0.00152454    0.00104717    0.00270411
     atom    7 type  2   force =     0.00174097    0.00239799   -0.00086924
     atom    8 type  2   force =    -0.00174097   -0.00239799    0.00086924
     atom    9 type  3   force =    -0.00143096    0.00228042    0.00030758
     atom   10 type  3   force =     0.00143096   -0.00228042   -0.00030758

     Total force =     0.008664     Total SCF correction =     0.000292


     Computing stress (Cartesian axis) and pressure

          total   stress  (Ry/bohr**3)                   (kbar)     P=      -36.01
  -0.00010978   0.00005148   0.00008044          -16.15        7.57       11.83
   0.00005148  -0.00002636  -0.00016451            7.57       -3.88      -24.20
   0.00008044  -0.00016451  -0.00059821           11.83      -24.20      -88.00

     Energy error            =      2.9E-04 Ry
     Gradient error          =      2.7E-03 Ry/Bohr

     number of scf cycles    =   3
     number of bfgs steps    =   2

     energy             old  =    -469.4723865233 Ry
     energy             new  =    -469.4726811567 Ry

     CASE: energy            _new < energy            _old

     new trust radius        =       0.0066219855 bohr
     new conv_thr            =       0.0000000270 Ry


ATOMIC_POSITIONS (angstrom)
O             6.6708404909        4.3971149983        0.8854910138
O             5.9119484357        3.9809051388        3.9478691250
O             7.5209917408        1.7978604684        2.3037399070
O             5.0124160233        1.5199574606        3.2734508837
O             5.7713080785        1.9361673201        0.2110727726
O             4.1622647734        4.1192119905        1.8552019905
Mg            4.2162330244        2.1401094280        1.4936739642
Mg            7.4670234898        3.7769630309        2.6652679333
Si            1.8473862603        0.9216918905        0.6569614784
Si            9.8358702538        4.9953805684        3.5019804192



     Writing config-only to output data dir ./Aknew_.save/
     NEW-OLD atomic charge density approx. for the potential

     Check: negative core charge=   -0.000002

     total cpu time spent up to now is      376.5 secs

     per-process dynamical memory:   137.7 Mb

     Self-consistent Calculation

     iteration #  1     ecut=    80.00 Ry     beta= 0.70
     Davidson diagonalization with overlap
     ethr =  1.00E-06,  avg # of iterations =  5.5

     Threshold (ethr) on eigenvalues was too large:
     Diagonalizing with lowered threshold

     Davidson diagonalization with overlap
     ethr =  3.16E-08,  avg # of iterations =  5.1

     total cpu time spent up to now is      414.4 secs

     total energy              =    -469.47275980 Ry
     estimated scf accuracy    <       0.00002379 Ry

     iteration #  2     ecut=    80.00 Ry     beta= 0.70
     Davidson diagonalization with overlap
     ethr =  3.72E-08,  avg # of iterations =  2.0

     total cpu time spent up to now is      429.0 secs

     total energy              =    -469.47276364 Ry
     estimated scf accuracy    <       0.00000079 Ry

     iteration #  3     ecut=    80.00 Ry     beta= 0.70
     Davidson diagonalization with overlap
     ethr =  1.24E-09,  avg # of iterations =  3.6

     total cpu time spent up to now is      445.2 secs

     total energy              =    -469.47276388 Ry
     estimated scf accuracy    <       0.00000009 Ry

     iteration #  4     ecut=    80.00 Ry     beta= 0.70
     Davidson diagonalization with overlap
     ethr =  1.45E-10,  avg # of iterations =  3.9

     total cpu time spent up to now is      461.1 secs

     End of self-consistent calculation

     Number of k-points >= 100: set verbosity='high' to print the bands.

     highest occupied level (ev):     7.2835

!    total energy              =    -469.47276391 Ry
     estimated scf accuracy    <       0.00000001 Ry

     The total energy is the sum of the following terms:
     one-electron contribution =    -222.93131140 Ry
     hartree contribution      =     143.70714750 Ry
     xc contribution           =     -91.10428792 Ry
     ewald contribution        =    -299.14431209 Ry

     convergence has been achieved in   4 iterations

     Forces acting on atoms (cartesian axes, Ry/au):

     atom    1 type  1   force =     0.00115195   -0.00105454    0.00161932
     atom    2 type  1   force =     0.00105191    0.00111664    0.00024585
     atom    3 type  1   force =     0.00107262   -0.00090613   -0.00138537
     atom    4 type  1   force =    -0.00115195    0.00105454   -0.00161932
     atom    5 type  1   force =    -0.00105191   -0.00111664   -0.00024585
     atom    6 type  1   force =    -0.00107262    0.00090613    0.00138537
     atom    7 type  2   force =     0.00121884    0.00165921   -0.00014162
     atom    8 type  2   force =    -0.00121884   -0.00165921    0.00014162
     atom    9 type  3   force =    -0.00092342    0.00256730    0.00051401
     atom   10 type  3   force =     0.00092342   -0.00256730   -0.00051401

     Total force =     0.006831     Total SCF correction =     0.000229


     Computing stress (Cartesian axis) and pressure

          total   stress  (Ry/bohr**3)                   (kbar)     P=      -35.81
  -0.00011233   0.00005235   0.00008190          -16.52        7.70       12.05
   0.00005235  -0.00002495  -0.00015747            7.70       -3.67      -23.16
   0.00008190  -0.00015747  -0.00059309           12.05      -23.16      -87.25

     Energy error            =      8.3E-05 Ry
     Gradient error          =      2.6E-03 Ry/Bohr

     number of scf cycles    =   4
     number of bfgs steps    =   3

     energy             old  =    -469.4726811567 Ry
     energy             new  =    -469.4727639076 Ry

     CASE: energy            _new < energy            _old

     new trust radius        =       0.0072841841 bohr
     new conv_thr            =       0.0000000100 Ry


ATOMIC_POSITIONS (angstrom)
O             6.6709606835        4.3945119194        0.8856089323
O             5.9128499514        3.9827202118        3.9484035189
O             7.5226286569        1.7965139924        2.3005203363
O             5.0122958307        1.5225605395        3.2733329652
O             5.7704065628        1.9343522471        0.2105383787
O             4.1606278573        4.1205584665        1.8584215612
Mg            4.2183480465        2.1429706158        1.4927694387
Mg            7.4649084677        3.7741018431        2.6661724588
Si            1.8468222544        0.9227615928        0.6575792272
Si            9.8364342597        4.9943108661        3.5013626704



     Writing config-only to output data dir ./Aknew_.save/
     NEW-OLD atomic charge density approx. for the potential

     Check: negative core charge=   -0.000002

     total cpu time spent up to now is      476.4 secs

     per-process dynamical memory:   137.7 Mb

     Self-consistent Calculation

     iteration #  1     ecut=    80.00 Ry     beta= 0.70
     Davidson diagonalization with overlap
     ethr =  1.00E-06,  avg # of iterations =  6.9

     Threshold (ethr) on eigenvalues was too large:
     Diagonalizing with lowered threshold

     Davidson diagonalization with overlap
     ethr =  3.45E-08,  avg # of iterations =  4.3

     total cpu time spent up to now is      514.6 secs

     total energy              =    -469.47282070 Ry
     estimated scf accuracy    <       0.00002584 Ry

     iteration #  2     ecut=    80.00 Ry     beta= 0.70
     Davidson diagonalization with overlap
     ethr =  4.04E-08,  avg # of iterations =  2.0

     total cpu time spent up to now is      527.7 secs

     total energy              =    -469.47282468 Ry
     estimated scf accuracy    <       0.00000071 Ry

     iteration #  3     ecut=    80.00 Ry     beta= 0.70
     Davidson diagonalization with overlap
     ethr =  1.11E-09,  avg # of iterations =  4.3

     total cpu time spent up to now is      544.1 secs

     total energy              =    -469.47282487 Ry
     estimated scf accuracy    <       0.00000009 Ry

     iteration #  4     ecut=    80.00 Ry     beta= 0.70
     Davidson diagonalization with overlap
     ethr =  1.40E-10,  avg # of iterations =  3.9

     total cpu time spent up to now is      560.6 secs

     total energy              =    -469.47282489 Ry
     estimated scf accuracy    <       0.00000003 Ry

     iteration #  5     ecut=    80.00 Ry     beta= 0.70
     Davidson diagonalization with overlap
     ethr =  4.86E-11,  avg # of iterations =  3.2

     total cpu time spent up to now is      575.3 secs

     End of self-consistent calculation

     Number of k-points >= 100: set verbosity='high' to print the bands.

     highest occupied level (ev):     7.2817

!    total energy              =    -469.47282490 Ry
     estimated scf accuracy    <          2.6E-09 Ry

     The total energy is the sum of the following terms:
     one-electron contribution =    -222.88867946 Ry
     hartree contribution      =     143.68878684 Ry
     xc contribution           =     -91.10384148 Ry
     ewald contribution        =    -299.16909081 Ry

     convergence has been achieved in   5 iterations

     Forces acting on atoms (cartesian axes, Ry/au):

     atom    1 type  1   force =     0.00056945   -0.00024729    0.00108732
     atom    2 type  1   force =     0.00071426    0.00013576    0.00032928
     atom    3 type  1   force =     0.00041427   -0.00056274   -0.00003670
     atom    4 type  1   force =    -0.00056945    0.00024729   -0.00108732
     atom    5 type  1   force =    -0.00071426   -0.00013576   -0.00032928
     atom    6 type  1   force =    -0.00041427    0.00056274    0.00003670
     atom    7 type  2   force =     0.00053577    0.00071784    0.00055178
     atom    8 type  2   force =    -0.00053577   -0.00071784   -0.00055178
     atom    9 type  3   force =     0.00021893    0.00143095    0.00045140
     atom   10 type  3   force =    -0.00021893   -0.00143095   -0.00045140

     Total force =     0.003493     Total SCF correction =     0.000077


     Computing stress (Cartesian axis) and pressure

          total   stress  (Ry/bohr**3)                   (kbar)     P=      -35.89
  -0.00011864   0.00005242   0.00008067          -17.45        7.71       11.87
   0.00005242  -0.00002290  -0.00015328            7.71       -3.37      -22.55
   0.00008067  -0.00015328  -0.00059038           11.87      -22.55      -86.85

     Energy error            =      6.1E-05 Ry
     Gradient error          =      1.4E-03 Ry/Bohr

     number of scf cycles    =   5
     number of bfgs steps    =   4

     energy             old  =    -469.4727639076 Ry
     energy             new  =    -469.4728248996 Ry

     CASE: energy            _new < energy            _old

     new trust radius        =       0.0034120833 bohr
     new conv_thr            =       0.0000000100 Ry


ATOMIC_POSITIONS (angstrom)
O             6.6712474515        4.3934168006        0.8862054155
O             5.9135797205        3.9833924851        3.9488319723
O             7.5234398631        1.7956791245        2.2993849294
O             5.0120090627        1.5236556583        3.2727364820
O             5.7696767937        1.9336799738        0.2101099253
O             4.1598166511        4.1213933344        1.8595569681
Mg            4.2194225344        2.1444201500        1.4928365660
Mg            7.4638339798        3.7726523089        2.6661053315
Si            1.8468986209        0.9238593319        0.6580905664
Si            9.8363578932        4.9932131270        3.5008513312



     Writing config-only to output data dir ./Aknew_.save/
     NEW-OLD atomic charge density approx. for the potential

     Check: negative core charge=   -0.000002

     total cpu time spent up to now is      590.9 secs

     per-process dynamical memory:   137.7 Mb

     Self-consistent Calculation

     iteration #  1     ecut=    80.00 Ry     beta= 0.70
     Davidson diagonalization with overlap
     ethr =  1.00E-06,  avg # of iterations =  3.3

     Threshold (ethr) on eigenvalues was too large:
     Diagonalizing with lowered threshold

     Davidson diagonalization with overlap
     ethr =  6.70E-09,  avg # of iterations =  7.2

     total cpu time spent up to now is      631.8 secs

     total energy              =    -469.47283821 Ry
     estimated scf accuracy    <       0.00000576 Ry

     iteration #  2     ecut=    80.00 Ry     beta= 0.70
     Davidson diagonalization with overlap
     ethr =  9.01E-09,  avg # of iterations =  2.0

     total cpu time spent up to now is      645.3 secs

     total energy              =    -469.47283920 Ry
     estimated scf accuracy    <       0.00000032 Ry

     iteration #  3     ecut=    80.00 Ry     beta= 0.70
     Davidson diagonalization with overlap
     ethr =  4.93E-10,  avg # of iterations =  2.6

     total cpu time spent up to now is      659.5 secs

     total energy              =    -469.47283928 Ry
     estimated scf accuracy    <       0.00000005 Ry

     iteration #  4     ecut=    80.00 Ry     beta= 0.70
     Davidson diagonalization with overlap
     ethr =  7.15E-11,  avg # of iterations =  3.3

     total cpu time spent up to now is      673.8 secs

     End of self-consistent calculation

     Number of k-points >= 100: set verbosity='high' to print the bands.

     highest occupied level (ev):     7.2803

!    total energy              =    -469.47283929 Ry
     estimated scf accuracy    <          6.9E-09 Ry

     The total energy is the sum of the following terms:
     one-electron contribution =    -222.87697403 Ry
     hartree contribution      =     143.68448902 Ry
     xc contribution           =     -91.10308016 Ry
     ewald contribution        =    -299.17727412 Ry

     convergence has been achieved in   4 iterations

     Forces acting on atoms (cartesian axes, Ry/au):

     atom    1 type  1   force =    -0.00006226   -0.00008838    0.00025262
     atom    2 type  1   force =     0.00018527   -0.00025982    0.00032599
     atom    3 type  1   force =     0.00007492   -0.00029952    0.00042811
     atom    4 type  1   force =     0.00006226    0.00008838   -0.00025262
     atom    5 type  1   force =    -0.00018527    0.00025982   -0.00032599
     atom    6 type  1   force =    -0.00007492    0.00029952   -0.00042811
     atom    7 type  2   force =     0.00027138    0.00028172    0.00067270
     atom    8 type  2   force =    -0.00027138   -0.00028172   -0.00067270
     atom    9 type  3   force =     0.00070934    0.00037080    0.00020495
     atom   10 type  3   force =    -0.00070934   -0.00037080   -0.00020495

     Total force =     0.001924     Total SCF correction =     0.000115


     Computing stress (Cartesian axis) and pressure

          total   stress  (Ry/bohr**3)                   (kbar)     P=      -36.10
  -0.00012347   0.00005231   0.00007891          -18.16        7.70       11.61
   0.00005231  -0.00002154  -0.00015268            7.70       -3.17      -22.46
   0.00007891  -0.00015268  -0.00059114           11.61      -22.46      -86.96

     Energy error            =      1.4E-05 Ry
     Gradient error          =      7.1E-04 Ry/Bohr

     bfgs converged in   6 scf cycles and   5 bfgs steps
     (criteria: energy <  1.0E-04 Ry, force <  1.0E-03 Ry/Bohr)

     End of BFGS Geometry Optimization

     Final energy             =    -469.4728392866 Ry

     File ./Aknew_.bfgs deleted, as requested
Begin final coordinates

ATOMIC_POSITIONS (angstrom)
O             6.6712474515        4.3934168006        0.8862054155
O             5.9135797205        3.9833924851        3.9488319723
O             7.5234398631        1.7956791245        2.2993849294
O             5.0120090627        1.5236556583        3.2727364820
O             5.7696767937        1.9336799738        0.2101099253
O             4.1598166511        4.1213933344        1.8595569681
Mg            4.2194225344        2.1444201500        1.4928365660
Mg            7.4638339798        3.7726523089        2.6661053315
Si            1.8468986209        0.9238593319        0.6580905664
Si            9.8363578932        4.9932131270        3.5008513312
End final coordinates



     Writing all to output data dir ./Aknew_.save/

     init_run     :      8.72s CPU      8.87s WALL (       1 calls)
     electrons    :    583.13s CPU    588.43s WALL (       6 calls)
     update_pot   :     17.44s CPU     17.52s WALL (       5 calls)
     forces       :     23.79s CPU     23.98s WALL (       6 calls)
     stress       :     44.75s CPU     44.91s WALL (       6 calls)

     Called by init_run:
     wfcinit      :      4.52s CPU      4.61s WALL (       1 calls)
     potinit      :      1.48s CPU      1.51s WALL (       1 calls)
     hinit0       :      2.64s CPU      2.65s WALL (       1 calls)

     Called by electrons:
     c_bands      :    519.39s CPU    523.45s WALL (      35 calls)
     sum_band     :     57.66s CPU     58.21s WALL (      35 calls)
     v_of_rho     :      4.37s CPU      5.04s WALL (      38 calls)
     newd         :      2.07s CPU      2.18s WALL (      38 calls)
     mix_rho      :      0.20s CPU      0.20s WALL (      35 calls)

     Called by c_bands:
     init_us_2    :     11.29s CPU     11.33s WALL (    8466 calls)
     init_us_2:cp :     11.25s CPU     11.31s WALL (    8466 calls)
     cegterg      :    467.31s CPU    471.26s WALL (    3570 calls)

     Called by *egterg:
     cdiaghg      :     23.97s CPU     24.10s WALL (   16414 calls)
     h_psi        :    326.05s CPU    329.57s WALL (   17332 calls)
     s_psi        :     16.44s CPU     16.49s WALL (   17332 calls)
     g_psi        :      2.10s CPU      2.11s WALL (   13660 calls)

     Called by h_psi:
     h_psi:calbec :     30.38s CPU     30.54s WALL (   17332 calls)
     vloc_psi     :    272.06s CPU    275.37s WALL (   17332 calls)
     add_vuspsi   :     18.85s CPU     18.91s WALL (   17332 calls)

     General routines
     calbec       :     42.50s CPU     42.72s WALL (   23962 calls)
     fft          :      2.86s CPU      3.03s WALL (     640 calls)
     ffts         :      0.29s CPU      0.29s WALL (      73 calls)
     fftw         :    272.91s CPU    276.15s WALL (  857764 calls)
     interpolate  :      0.43s CPU      0.43s WALL (      38 calls)

     Parallel routines

     PWSCF        :  11m20.04s CPU  11m26.27s WALL


   This run was terminated on:  13:24: 3   4Aug2025            

=------------------------------------------------------------------------------=
   JOB DONE.
=------------------------------------------------------------------------------=
