&CONTROL
   calculation      = 'relax'
   tstress          = .true.
   tprnfor          = .true.
   prefix           = 'Aknew_'
/
&SYSTEM
   ecutwfc          = 80
   ecutrho          = 600
   ntyp             = 3
   nat              = 10
   ibrav            = 0
/
&ELECTRONS
   conv_thr         = 1e-09
   mixing_beta      = 0.4
/
&IONS
   ion_dynamics     = 'bfgs'
/
&CELL
   cell_dynamics    = 'bfgs'
/

ATOMIC_SPECIES
O 15.999 O.wc-nl-rrkjus_psl.1.0.0.UPF
Mg 24.305 Mg.wc-spnl-rrkjus_psl.1.0.0.UPF
Si 28.085 Si.wc-nl-rrkjus_psl.1.0.0.UPF

K_POINTS automatic
9 9 9  0 0 0

CELL_PARAMETERS angstrom
2.83544686605000 0.00000000000000 4.55136590700000
-1.41772343251000 2.38404758900000 4.55136590700000
-1.41772343251000 -2.38404758900000 4.55136590700000

ATOMIC_POSITIONS angstrom
O 1.3691528546 -0.5944282128 3.2826586420 
O -0.1543427963 1.4483996926 3.2826586420 
O -1.2148100583 -0.8539714798 3.2826586420 
O -1.3691528546 0.5944282128 -3.2826586420 
O 0.1543427963 -1.4483996926 -3.2826586420 
O 1.2148100583 0.8539714798 -3.2826586420 
Mg 0.0000000000 0.0000000000 4.9207001867 
Mg 0.0000000000 0.0000000000 -4.9207001867 
Si 0.0000000000 0.0000000000 2.1548750428 
Si 0.0000000000 0.0000000000 -2.1548750428 

