
     Program PWSCF v.7.0 starts on  4Aug2025 at 14:15:20 

     This program is part of the open-source Quantum ESPRESSO suite
     for quantum simulation of materials; please cite
         "P. Giannozzi et al., J. Phys.:Condens. Matter 21 395502 (2009);
         "P. Giannozzi et al., J. Phys.:Condens. Matter 29 465901 (2017);
         "P. Giannozzi et al., J. Chem. Phys. 152 154105 (2020);
          URL http://www.quantum-espresso.org", 
     in publications or presentations arising from this work. More details at
     http://www.quantum-espresso.org/quote

     Parallel version (MPI & OpenMP), running on      16 processor cores
     Number of MPI processes:                16
     Threads/MPI process:                     1

     MPI processes distributed on     1 nodes
     K-points division:     npool     =       4
     R & G space division:  proc/nbgrp/npool/nimage =       4
     4526 MiB available memory on the printing compute node when the environment starts

     Waiting for input...
     Reading input from standard input
Warning: card &CELL ignored
Warning: card    CELL_DYNAMICS    = 'BFGS' ignored
Warning: card    PRESS            = 150 ignored
Warning: card    PRESS_CONV_THR   = 0.05 ignored
Warning: card / ignored

     Current dimensions of program PWSCF are:
     Max number of different atomic species (ntypx) = 10
     Max number of k-points (npk) =  40000
     Max angular momentum in pseudopotentials (lmaxx) =  4
     file O.pbe-nl-rrkjus_psl.1.0.0.UPF: wavefunction(s)  2S renormalized
     file Mg.pbe-spnl-rrkjus_psl.1.0.0.UPF: wavefunction(s)  2P renormalized
     Message from routine setup:
     using ibrav=0 with symmetry is DISCOURAGED, use correct ibrav instead

     Subspace diagonalization in iterative solution of the eigenvalue problem:
     one sub-group per band group will be used
     scalapack distributed-memory algorithm (size of sub-group:  2*  2 procs)


     Parallelization info
     --------------------
     sticks:   dense  smooth     PW     G-vecs:    dense   smooth      PW
     Min         967     517    152                35229    13726    2201
     Max         968     518    153                35230    13727    2203
     Sum        3871    2069    611               140917    54907    8809

     Using Slab Decomposition



     bravais-lattice index     =            0
     lattice parameter (alat)  =      10.0517  a.u.
     unit-cell volume          =     567.8984 (a.u.)^3
     number of atoms/cell      =           10
     number of atomic types    =            3
     number of electrons       =        64.00
     number of Kohn-Sham states=           32
     kinetic-energy cutoff     =      80.0000  Ry
     charge density cutoff     =     600.0000  Ry
     scf convergence threshold =      1.0E-06
     mixing beta               =       0.7000
     number of iterations used =            8  plain     mixing
     energy convergence thresh.=      1.0E-04
     force convergence thresh. =      1.0E-03
     Exchange-correlation= PBE
                           (   1   4   3   4   0   0   0)
     nstep                     =           50


     celldm(1)=  10.051705  celldm(2)=   0.000000  celldm(3)=   0.000000
     celldm(4)=   0.000000  celldm(5)=   0.000000  celldm(6)=   0.000000

     crystal axes: (cart. coord. in units of alat)
               a(1) = (   1.000000   0.000000   0.000000 )  
               a(2) = (   0.598229   0.801325  -0.024040 )  
               a(3) = (   0.598229   0.277650   0.689490 )  

     reciprocal axes: (cart. coord. in units 2 pi/alat)
               b(1) = (  1.000000 -0.763358 -0.560245 )  
               b(2) = (  0.000000  1.233037 -0.496530 )  
               b(3) = ( -0.000000  0.042991  1.433036 )  


     PseudoPot. # 1 for O  read from file:
     /home/tim/espresso/pseudo/O.pbe-nl-rrkjus_psl.1.0.0.UPF
     MD5 check sum: 233c8028909f741e7889d61785a595bc
     Pseudo is Ultrasoft + core correction, Zval =  6.0
     Generated using 'atomic' code by A. Dal Corso  v.7.0
     Using radial grid of 1095 points,  4 beta functions with: 
                l(1) =   0
                l(2) =   0
                l(3) =   1
                l(4) =   1
     Q(r) pseudized with 0 coefficients 


     PseudoPot. # 2 for Mg read from file:
     /home/tim/espresso/pseudo/Mg.pbe-spnl-rrkjus_psl.1.0.0.UPF
     MD5 check sum: 37caad9c05fe2a5f639d8b65b442f5f9
     Pseudo is Ultrasoft + core correction, Zval = 10.0
     Generated using 'atomic' code by A. Dal Corso  v.7.0
     Using radial grid of 1129 points,  4 beta functions with: 
                l(1) =   0
                l(2) =   0
                l(3) =   1
                l(4) =   1
     Q(r) pseudized with 0 coefficients 


     PseudoPot. # 3 for Si read from file:
     /home/tim/espresso/pseudo/Si.pbe-nl-rrkjus_psl.1.0.0.UPF
     MD5 check sum: ceeb670d53204f1f4f48a0a0dd9ca3d4
     Pseudo is Ultrasoft + core correction, Zval =  4.0
     Generated using 'atomic' code by A. Dal Corso  v.7.0
     Using radial grid of 1141 points,  4 beta functions with: 
                l(1) =   0
                l(2) =   0
                l(3) =   1
                l(4) =   1
     Q(r) pseudized with 0 coefficients 


     atomic species   valence    mass     pseudopotential
        O              6.00    15.99900     O ( 1.00)
        Mg            10.00    24.30500     Mg( 1.00)
        Si             4.00    28.08500     Si( 1.00)

      2 Sym. Ops., with inversion, found



   Cartesian axes

     site n.     atom                  positions (alat units)
         1           O   tau(   1) = (   1.2556278   0.8217736   0.1177904  )
         2           O   tau(   2) = (   1.1117127   0.7157059   0.6448003  )
         3           O   tau(   3) = (   1.4133075   0.3197024   0.3828130  )
         4           O   tau(   4) = (   0.9408310   0.2572011   0.5476596  )
         5           O   tau(   5) = (   1.0847462   0.3632688   0.0206496  )
         6           O   tau(   6) = (   0.7831513   0.7592723   0.2826370  )
         7           Mg  tau(   7) = (   0.7915657   0.3888438   0.2398166  )
         8           Mg  tau(   8) = (   1.4048931   0.6901309   0.4256333  )
         9           Si  tau(   9) = (   0.3466428   0.1702826   0.1050206  )
        10           Si  tau(  10) = (   1.8498160   0.9086921   0.5604293  )

     number of k points=   452

     Number of k-points >= 100: set verbosity='high' to print them.

     Dense  grid:   140917 G-vectors     FFT dimensions: (  80,  80,  75)

     Smooth grid:    54907 G-vectors     FFT dimensions: (  60,  60,  60)

     Estimated max dynamical RAM per process >     132.43 MB

     Estimated total dynamical RAM >       1.97 GB

     Check: negative core charge=   -0.000002

     Initial potential from superposition of free atoms

     starting charge      63.9970, renormalised to      64.0000
     Starting wfcs are   42 randomized atomic wfcs

     total cpu time spent up to now is        9.0 secs

     per-process dynamical memory:   131.6 Mb

     Self-consistent Calculation

     iteration #  1     ecut=    80.00 Ry     beta= 0.70
     Davidson diagonalization with overlap
     ethr =  1.00E-02,  avg # of iterations =  2.0

     total cpu time spent up to now is       23.0 secs

     total energy              =    -468.49043075 Ry
     estimated scf accuracy    <       2.10798098 Ry

     iteration #  2     ecut=    80.00 Ry     beta= 0.70
     Davidson diagonalization with overlap
     ethr =  3.29E-03,  avg # of iterations =  3.0

     total cpu time spent up to now is       39.6 secs

     total energy              =    -469.21107421 Ry
     estimated scf accuracy    <       1.20431926 Ry

     iteration #  3     ecut=    80.00 Ry     beta= 0.70
     Davidson diagonalization with overlap
     ethr =  1.88E-03,  avg # of iterations =  2.0

     total cpu time spent up to now is       54.8 secs

     total energy              =    -469.38083136 Ry
     estimated scf accuracy    <       0.04146830 Ry

     iteration #  4     ecut=    80.00 Ry     beta= 0.70
     Davidson diagonalization with overlap
     ethr =  6.48E-05,  avg # of iterations =  5.2

     total cpu time spent up to now is       77.0 secs

     total energy              =    -469.42403877 Ry
     estimated scf accuracy    <       0.05230808 Ry

     iteration #  5     ecut=    80.00 Ry     beta= 0.70
     Davidson diagonalization with overlap
     ethr =  6.48E-05,  avg # of iterations =  2.0

     total cpu time spent up to now is       89.3 secs

     total energy              =    -469.41843258 Ry
     estimated scf accuracy    <       0.01839217 Ry

     iteration #  6     ecut=    80.00 Ry     beta= 0.70
     Davidson diagonalization with overlap
     ethr =  2.87E-05,  avg # of iterations =  2.0

     total cpu time spent up to now is      103.4 secs

     total energy              =    -469.42145733 Ry
     estimated scf accuracy    <       0.00076496 Ry

     iteration #  7     ecut=    80.00 Ry     beta= 0.70
     Davidson diagonalization with overlap
     ethr =  1.20E-06,  avg # of iterations =  5.6

     total cpu time spent up to now is      127.7 secs

     total energy              =    -469.42214925 Ry
     estimated scf accuracy    <       0.00003408 Ry

     iteration #  8     ecut=    80.00 Ry     beta= 0.70
     Davidson diagonalization with overlap
     ethr =  5.33E-08,  avg # of iterations =  4.6

     total cpu time spent up to now is      150.2 secs

     total energy              =    -469.42200210 Ry
     estimated scf accuracy    <       0.00054774 Ry

     iteration #  9     ecut=    80.00 Ry     beta= 0.70
     Davidson diagonalization with overlap
     ethr =  5.33E-08,  avg # of iterations =  4.0

     total cpu time spent up to now is      169.8 secs

     total energy              =    -469.42205542 Ry
     estimated scf accuracy    <       0.00002410 Ry

     iteration # 10     ecut=    80.00 Ry     beta= 0.70
     Davidson diagonalization with overlap
     ethr =  3.76E-08,  avg # of iterations =  2.2

     total cpu time spent up to now is      184.0 secs

     End of self-consistent calculation

     Number of k-points >= 100: set verbosity='high' to print the bands.

     highest occupied level (ev):     8.4862

!    total energy              =    -469.42206016 Ry
     estimated scf accuracy    <       0.00000034 Ry

     The total energy is the sum of the following terms:
     one-electron contribution =    -209.29965327 Ry
     hartree contribution      =     139.83204543 Ry
     xc contribution           =     -91.74237725 Ry
     ewald contribution        =    -308.21207507 Ry

     convergence has been achieved in  10 iterations

     Forces acting on atoms (cartesian axes, Ry/au):

     atom    1 type  1   force =     0.01683497    0.03209964    0.05014412
     atom    2 type  1   force =     0.00079971   -0.00074442   -0.00443574
     atom    3 type  1   force =     0.00143194    0.01352812    0.04036234
     atom    4 type  1   force =    -0.01683497   -0.03209964   -0.05014412
     atom    5 type  1   force =    -0.00079971    0.00074442    0.00443574
     atom    6 type  1   force =    -0.00143194   -0.01352812   -0.04036234
     atom    7 type  2   force =    -0.00858320   -0.00557226    0.00984636
     atom    8 type  2   force =     0.00858320    0.00557226   -0.00984636
     atom    9 type  3   force =    -0.01486556    0.03582232    0.00046463
     atom   10 type  3   force =     0.01486556   -0.03582232   -0.00046463

     Total force =     0.121403     Total SCF correction =     0.000555


     Computing stress (Cartesian axis) and pressure

          total   stress  (Ry/bohr**3)                   (kbar)     P=      200.17
   0.00081002  -0.00005173  -0.00007219          119.16       -7.61      -10.62
  -0.00005173   0.00080556   0.00069272           -7.61      118.50      101.90
  -0.00007219   0.00069272   0.00246658          -10.62      101.90      362.85


     BFGS Geometry Optimization
     Energy error            =      0.0E+00 Ry
     Gradient error          =      5.0E-02 Ry/Bohr

     number of scf cycles    =   1
     number of bfgs steps    =   0

     energy             new  =    -469.4220601647 Ry

     new trust radius        =       0.0618727383 bohr
     new conv_thr            =       0.0000010000 Ry


ATOMIC_POSITIONS (angstrom)
O             6.6877600762        4.3881093413        0.6530776795
O             5.9137706298        3.8065408315        3.4274312362
O             7.5183282037        1.7076985228        2.0575918528
O             4.9954964380        1.3511006121        2.8865388842
O             5.7694858844        1.9326691220        0.1121853275
O             4.1649283105        4.0315114307        1.4820247109
Mg            4.2059011367        2.0653630905        1.2808269361
Mg            7.4773553775        3.6738468630        2.2587896276
Si            1.8359724815        0.9247123104        0.5588643570
Si            9.8472840326        4.8144976430        2.9807522067



     Writing config-only to output data dir ./Aknew_.save/
     NEW-OLD atomic charge density approx. for the potential

     Check: negative core charge=   -0.000002

     total cpu time spent up to now is      199.6 secs

     per-process dynamical memory:   142.1 Mb

     Self-consistent Calculation

     iteration #  1     ecut=    80.00 Ry     beta= 0.70
     Davidson diagonalization with overlap
     ethr =  1.00E-06,  avg # of iterations =  9.0

     total cpu time spent up to now is      232.9 secs

     total energy              =    -469.43000219 Ry
     estimated scf accuracy    <       0.00331634 Ry

     iteration #  2     ecut=    80.00 Ry     beta= 0.70
     Davidson diagonalization with overlap
     ethr =  5.18E-06,  avg # of iterations =  2.0

     total cpu time spent up to now is      246.1 secs

     total energy              =    -469.43075442 Ry
     estimated scf accuracy    <       0.00034068 Ry

     iteration #  3     ecut=    80.00 Ry     beta= 0.70
     Davidson diagonalization with overlap
     ethr =  5.32E-07,  avg # of iterations =  2.0

     total cpu time spent up to now is      259.7 secs

     total energy              =    -469.43083363 Ry
     estimated scf accuracy    <       0.00001138 Ry

     iteration #  4     ecut=    80.00 Ry     beta= 0.70
     Davidson diagonalization with overlap
     ethr =  1.78E-08,  avg # of iterations =  4.5

     total cpu time spent up to now is      276.9 secs

     total energy              =    -469.43083740 Ry
     estimated scf accuracy    <       0.00000171 Ry

     iteration #  5     ecut=    80.00 Ry     beta= 0.70
     Davidson diagonalization with overlap
     ethr =  2.67E-09,  avg # of iterations =  3.3

     total cpu time spent up to now is      292.9 secs

     End of self-consistent calculation

     Number of k-points >= 100: set verbosity='high' to print the bands.

     highest occupied level (ev):     8.5225

!    total energy              =    -469.43083783 Ry
     estimated scf accuracy    <       0.00000031 Ry

     The total energy is the sum of the following terms:
     one-electron contribution =    -209.49662609 Ry
     hartree contribution      =     139.97055654 Ry
     xc contribution           =     -91.69332900 Ry
     ewald contribution        =    -308.21143927 Ry

     convergence has been achieved in   5 iterations

     Forces acting on atoms (cartesian axes, Ry/au):

     atom    1 type  1   force =    -0.00309689    0.00795128    0.00242253
     atom    2 type  1   force =    -0.00268031   -0.00493201   -0.00091851
     atom    3 type  1   force =    -0.00490157    0.00574433    0.02478176
     atom    4 type  1   force =     0.00309689   -0.00795128   -0.00242253
     atom    5 type  1   force =     0.00268031    0.00493201    0.00091851
     atom    6 type  1   force =     0.00490157   -0.00574433   -0.02478176
     atom    7 type  2   force =    -0.00832308   -0.00609541    0.00354885
     atom    8 type  2   force =     0.00832308    0.00609541   -0.00354885
     atom    9 type  3   force =    -0.00165454   -0.00085147   -0.01313912
     atom   10 type  3   force =     0.00165454    0.00085147    0.01313912

     Total force =     0.046418     Total SCF correction =     0.000743


     Computing stress (Cartesian axis) and pressure

          total   stress  (Ry/bohr**3)                   (kbar)     P=      179.54
   0.00077913  -0.00011914  -0.00011474          114.61      -17.53      -16.88
  -0.00011914   0.00068726   0.00046070          -17.53      101.10       67.77
  -0.00011474   0.00046070   0.00219499          -16.88       67.77      322.89

     Energy error            =      8.8E-03 Ry
     Gradient error          =      2.5E-02 Ry/Bohr

     number of scf cycles    =   2
     number of bfgs steps    =   1

     energy             old  =    -469.4220601647 Ry
     energy             new  =    -469.4308378285 Ry

     CASE: energy            _new < energy            _old

     new trust radius        =       0.0395151373 bohr
     new conv_thr            =       0.0000002478 Ry


ATOMIC_POSITIONS (angstrom)
O             6.6871548537        4.3962080514        0.6590523515
O             5.9120502958        3.8031827186        3.4264324685
O             7.5151795213        1.7127098404        2.0776473241
O             4.9961016605        1.3430019020        2.8805642122
O             5.7712062184        1.9360272349        0.1131840952
O             4.1680769929        4.0265001131        1.4619692396
Mg            4.1995974761        2.0608086125        1.2840522800
Mg            7.4836590381        3.6784013410        2.2555642837
Si            1.8335759788        0.9272563034        0.5501308718
Si            9.8496805353        4.8119536500        2.9894856919



     Writing config-only to output data dir ./Aknew_.save/
     NEW-OLD atomic charge density approx. for the potential

     Check: negative core charge=   -0.000002

     total cpu time spent up to now is      306.9 secs

     per-process dynamical memory:   142.1 Mb

     Self-consistent Calculation

     iteration #  1     ecut=    80.00 Ry     beta= 0.70
     Davidson diagonalization with overlap
     ethr =  1.00E-06,  avg # of iterations =  8.1

     total cpu time spent up to now is      336.6 secs

     total energy              =    -469.43265885 Ry
     estimated scf accuracy    <       0.00078134 Ry

     iteration #  2     ecut=    80.00 Ry     beta= 0.70
     Davidson diagonalization with overlap
     ethr =  1.22E-06,  avg # of iterations =  2.0

     total cpu time spent up to now is      350.9 secs

     total energy              =    -469.43278952 Ry
     estimated scf accuracy    <       0.00004197 Ry

     iteration #  3     ecut=    80.00 Ry     beta= 0.70
     Davidson diagonalization with overlap
     ethr =  6.56E-08,  avg # of iterations =  2.9

     total cpu time spent up to now is      366.0 secs

     total energy              =    -469.43280080 Ry
     estimated scf accuracy    <       0.00000681 Ry

     iteration #  4     ecut=    80.00 Ry     beta= 0.70
     Davidson diagonalization with overlap
     ethr =  1.06E-08,  avg # of iterations =  4.2

     total cpu time spent up to now is      382.8 secs

     total energy              =    -469.43280288 Ry
     estimated scf accuracy    <       0.00000070 Ry

     iteration #  5     ecut=    80.00 Ry     beta= 0.70
     Davidson diagonalization with overlap
     ethr =  1.09E-09,  avg # of iterations =  3.2

     total cpu time spent up to now is      397.8 secs

     End of self-consistent calculation

     Number of k-points >= 100: set verbosity='high' to print the bands.

     highest occupied level (ev):     8.5469

!    total energy              =    -469.43280305 Ry
     estimated scf accuracy    <       0.00000006 Ry

     The total energy is the sum of the following terms:
     one-electron contribution =    -209.41631609 Ry
     hartree contribution      =     139.93950033 Ry
     xc contribution           =     -91.67593724 Ry
     ewald contribution        =    -308.28005004 Ry

     convergence has been achieved in   5 iterations

     Forces acting on atoms (cartesian axes, Ry/au):

     atom    1 type  1   force =    -0.00593784    0.00337543   -0.00140950
     atom    2 type  1   force =    -0.00252613   -0.00531480    0.00069056
     atom    3 type  1   force =    -0.00549659   -0.00162450    0.00572388
     atom    4 type  1   force =     0.00593784   -0.00337543    0.00140950
     atom    5 type  1   force =     0.00252613    0.00531480   -0.00069056
     atom    6 type  1   force =     0.00549659    0.00162450   -0.00572388
     atom    7 type  2   force =    -0.00655656   -0.00534168    0.00101539
     atom    8 type  2   force =     0.00655656    0.00534168   -0.00101539
     atom    9 type  3   force =     0.00162781   -0.00393448    0.00247493
     atom   10 type  3   force =    -0.00162781    0.00393448   -0.00247493

     Total force =     0.022189     Total SCF correction =     0.001112


     Computing stress (Cartesian axis) and pressure

          total   stress  (Ry/bohr**3)                   (kbar)     P=      172.15
   0.00078781  -0.00014592  -0.00012303          115.89      -21.47      -18.10
  -0.00014592   0.00066043   0.00038460          -21.47       97.15       56.58
  -0.00012303   0.00038460   0.00206247          -18.10       56.58      303.40

     Energy error            =      2.0E-03 Ry
     Gradient error          =      6.6E-03 Ry/Bohr

     number of scf cycles    =   3
     number of bfgs steps    =   2

     energy             old  =    -469.4308378285 Ry
     energy             new  =    -469.4328030468 Ry

     CASE: energy            _new < energy            _old

     new trust radius        =       0.0189446150 bohr
     new conv_thr            =       0.0000000656 Ry


ATOMIC_POSITIONS (angstrom)
O             6.6834831939        4.4011128968        0.6608416184
O             5.9100061592        3.7988505783        3.4265787682
O             7.5108321796        1.7129630856        2.0866771793
O             4.9997733203        1.3380970566        2.8787749453
O             5.7732503550        1.9403593752        0.1130377955
O             4.1724243346        4.0262468679        1.4529393844
Mg            4.1935981805        2.0560759548        1.2856808758
Mg            7.4896583337        3.6831339987        2.2539356879
Si            1.8337675485        0.9261851471        0.5502357198
Si            9.8494889656        4.8130248063        2.9893808439



     Writing config-only to output data dir ./Aknew_.save/
     NEW-OLD atomic charge density approx. for the potential

     Check: negative core charge=   -0.000002

     total cpu time spent up to now is      411.8 secs

     per-process dynamical memory:   142.1 Mb

     Self-consistent Calculation

     iteration #  1     ecut=    80.00 Ry     beta= 0.70
     Davidson diagonalization with overlap
     ethr =  1.00E-06,  avg # of iterations =  8.0

     total cpu time spent up to now is      440.2 secs

     total energy              =    -469.43329441 Ry
     estimated scf accuracy    <       0.00019804 Ry

     iteration #  2     ecut=    80.00 Ry     beta= 0.70
     Davidson diagonalization with overlap
     ethr =  3.09E-07,  avg # of iterations =  2.0

     total cpu time spent up to now is      453.5 secs

     total energy              =    -469.43332743 Ry
     estimated scf accuracy    <       0.00000574 Ry

     iteration #  3     ecut=    80.00 Ry     beta= 0.70
     Davidson diagonalization with overlap
     ethr =  8.97E-09,  avg # of iterations =  4.4

     total cpu time spent up to now is      470.7 secs

     total energy              =    -469.43332977 Ry
     estimated scf accuracy    <       0.00000089 Ry

     iteration #  4     ecut=    80.00 Ry     beta= 0.70
     Davidson diagonalization with overlap
     ethr =  1.40E-09,  avg # of iterations =  3.3

     total cpu time spent up to now is      485.6 secs

     total energy              =    -469.43332997 Ry
     estimated scf accuracy    <       0.00000015 Ry

     iteration #  5     ecut=    80.00 Ry     beta= 0.70
     Davidson diagonalization with overlap
     ethr =  2.40E-10,  avg # of iterations =  3.5

     total cpu time spent up to now is      501.4 secs

     End of self-consistent calculation

     Number of k-points >= 100: set verbosity='high' to print the bands.

     highest occupied level (ev):     8.5517

!    total energy              =    -469.43333000 Ry
     estimated scf accuracy    <       0.00000002 Ry

     The total energy is the sum of the following terms:
     one-electron contribution =    -209.42463786 Ry
     hartree contribution      =     139.93814725 Ry
     xc contribution           =     -91.67537694 Ry
     ewald contribution        =    -308.27146246 Ry

     convergence has been achieved in   5 iterations

     Forces acting on atoms (cartesian axes, Ry/au):

     atom    1 type  1   force =    -0.00371260    0.00007228   -0.00114482
     atom    2 type  1   force =    -0.00118599   -0.00272268    0.00052432
     atom    3 type  1   force =    -0.00249792   -0.00007125   -0.00081437
     atom    4 type  1   force =     0.00371260   -0.00007228    0.00114482
     atom    5 type  1   force =     0.00118599    0.00272268   -0.00052432
     atom    6 type  1   force =     0.00249792    0.00007125    0.00081437
     atom    7 type  2   force =    -0.00339096   -0.00342379   -0.00021155
     atom    8 type  2   force =     0.00339096    0.00342379    0.00021155
     atom    9 type  3   force =     0.00187247   -0.00262502    0.00180828
     atom   10 type  3   force =    -0.00187247    0.00262502   -0.00180828

     Total force =     0.011665     Total SCF correction =     0.000290


     Computing stress (Cartesian axis) and pressure

          total   stress  (Ry/bohr**3)                   (kbar)     P=      171.14
   0.00081207  -0.00012796  -0.00012521          119.46      -18.82      -18.42
  -0.00012796   0.00065778   0.00035763          -18.82       96.76       52.61
  -0.00012521   0.00035763   0.00202037          -18.42       52.61      297.21

     Energy error            =      5.3E-04 Ry
     Gradient error          =      3.7E-03 Ry/Bohr

     number of scf cycles    =   4
     number of bfgs steps    =   3

     energy             old  =    -469.4328030468 Ry
     energy             new  =    -469.4333300021 Ry

     CASE: energy            _new < energy            _old

     new trust radius        =       0.0104743106 bohr
     new conv_thr            =       0.0000000371 Ry


ATOMIC_POSITIONS (angstrom)
O             6.6801934789        4.4028044679        0.6612021230
O             5.9086723491        3.7958491745        3.4268917282
O             7.5080464089        1.7134477856        2.0891709977
O             5.0030630353        1.3364054855        2.8784144407
O             5.7745841651        1.9433607790        0.1127248355
O             4.1752101053        4.0257621679        1.4504455660
Mg            4.1895375381        2.0523247888        1.2860836128
Mg            7.4937189761        3.6868851647        2.2535329509
Si            1.8349300282        0.9245655676        0.5510857369
Si            9.8483264859        4.8146443858        2.9885308268



     Writing config-only to output data dir ./Aknew_.save/
     NEW-OLD atomic charge density approx. for the potential

     Check: negative core charge=   -0.000002

     total cpu time spent up to now is      515.3 secs

     per-process dynamical memory:   142.1 Mb

     Self-consistent Calculation

     iteration #  1     ecut=    80.00 Ry     beta= 0.70
     Davidson diagonalization with overlap
     ethr =  1.00E-06,  avg # of iterations =  7.0

     Threshold (ethr) on eigenvalues was too large:
     Diagonalizing with lowered threshold

     Davidson diagonalization with overlap
     ethr =  7.86E-08,  avg # of iterations =  2.0

     total cpu time spent up to now is      551.3 secs

     total energy              =    -469.43345457 Ry
     estimated scf accuracy    <       0.00005808 Ry

     iteration #  2     ecut=    80.00 Ry     beta= 0.70
     Davidson diagonalization with overlap
     ethr =  9.08E-08,  avg # of iterations =  2.0

     total cpu time spent up to now is      565.6 secs

     total energy              =    -469.43346708 Ry
     estimated scf accuracy    <       0.00000479 Ry

     iteration #  3     ecut=    80.00 Ry     beta= 0.70
     Davidson diagonalization with overlap
     ethr =  7.48E-09,  avg # of iterations =  2.0

     total cpu time spent up to now is      579.8 secs

     total energy              =    -469.43346825 Ry
     estimated scf accuracy    <       0.00000022 Ry

     iteration #  4     ecut=    80.00 Ry     beta= 0.70
     Davidson diagonalization with overlap
     ethr =  3.50E-10,  avg # of iterations =  5.0

     total cpu time spent up to now is      597.9 secs

     End of self-consistent calculation

     Number of k-points >= 100: set verbosity='high' to print the bands.

     highest occupied level (ev):     8.5465

!    total energy              =    -469.43346835 Ry
     estimated scf accuracy    <       0.00000002 Ry

     The total energy is the sum of the following terms:
     one-electron contribution =    -209.48395289 Ry
     hartree contribution      =     139.96143421 Ry
     xc contribution           =     -91.67802860 Ry
     ewald contribution        =    -308.23292106 Ry

     convergence has been achieved in   4 iterations

     Forces acting on atoms (cartesian axes, Ry/au):

     atom    1 type  1   force =    -0.00097086   -0.00106579    0.00034135
     atom    2 type  1   force =     0.00007873   -0.00028255   -0.00017814
     atom    3 type  1   force =    -0.00051600    0.00105889   -0.00199682
     atom    4 type  1   force =     0.00097086    0.00106579   -0.00034135
     atom    5 type  1   force =    -0.00007873    0.00028255    0.00017814
     atom    6 type  1   force =     0.00051600   -0.00105889    0.00199682
     atom    7 type  2   force =    -0.00136833   -0.00181198   -0.00060286
     atom    8 type  2   force =     0.00136833    0.00181198    0.00060286
     atom    9 type  3   force =     0.00050606   -0.00009422    0.00034895
     atom   10 type  3   force =    -0.00050606    0.00009422   -0.00034895

     Total force =     0.005214     Total SCF correction =     0.000338


     Computing stress (Cartesian axis) and pressure

          total   stress  (Ry/bohr**3)                   (kbar)     P=      171.55
   0.00082939  -0.00011127  -0.00012163          122.01      -16.37      -17.89
  -0.00011127   0.00065841   0.00035445          -16.37       96.85       52.14
  -0.00012163   0.00035445   0.00201072          -17.89       52.14      295.79

     Energy error            =      1.4E-04 Ry
     Gradient error          =      2.0E-03 Ry/Bohr

     number of scf cycles    =   5
     number of bfgs steps    =   4

     energy             old  =    -469.4333300021 Ry
     energy             new  =    -469.4334683495 Ry

     CASE: energy            _new < energy            _old

     new trust radius        =       0.0046404023 bohr
     new conv_thr            =       0.0000000138 Ry


ATOMIC_POSITIONS (angstrom)
O             6.6790070341        4.4024601073        0.6614994239
O             5.9084872768        3.7951414395        3.4268176222
O             7.5072089008        1.7142245063        2.0884799942
O             5.0042494801        1.3367498461        2.8781171398
O             5.7747692374        1.9440685140        0.1127989415
O             4.1760476134        4.0249854472        1.4511365695
Mg            4.1879231075        2.0504983009        1.2857878036
Mg            7.4953334067        3.6887116526        2.2538287601
Si            1.8354215316        0.9242406519        0.5513870366
Si            9.8478349825        4.8149693015        2.9882295271



     Writing config-only to output data dir ./Aknew_.save/
     NEW-OLD atomic charge density approx. for the potential

     Check: negative core charge=   -0.000002

     total cpu time spent up to now is      612.6 secs

     per-process dynamical memory:   142.1 Mb

     Self-consistent Calculation

     iteration #  1     ecut=    80.00 Ry     beta= 0.70
     Davidson diagonalization with overlap
     ethr =  1.00E-06,  avg # of iterations =  5.0

     Threshold (ethr) on eigenvalues was too large:
     Diagonalizing with lowered threshold

     Davidson diagonalization with overlap
     ethr =  5.67E-09,  avg # of iterations =  3.5

     total cpu time spent up to now is      647.6 secs

     total energy              =    -469.43349475 Ry
     estimated scf accuracy    <       0.00000577 Ry

     iteration #  2     ecut=    80.00 Ry     beta= 0.70
     Davidson diagonalization with overlap
     ethr =  9.02E-09,  avg # of iterations =  2.0

     total cpu time spent up to now is      663.1 secs

     total energy              =    -469.43349619 Ry
     estimated scf accuracy    <       0.00000067 Ry

     iteration #  3     ecut=    80.00 Ry     beta= 0.70
     Davidson diagonalization with overlap
     ethr =  1.04E-09,  avg # of iterations =  2.2

     total cpu time spent up to now is      677.7 secs

     total energy              =    -469.43349635 Ry
     estimated scf accuracy    <       0.00000005 Ry

     iteration #  4     ecut=    80.00 Ry     beta= 0.70
     Davidson diagonalization with overlap
     ethr =  7.29E-11,  avg # of iterations =  4.9

     total cpu time spent up to now is      695.8 secs

     End of self-consistent calculation

     Number of k-points >= 100: set verbosity='high' to print the bands.

     highest occupied level (ev):     8.5433

!    total energy              =    -469.43349637 Ry
     estimated scf accuracy    <          4.8E-09 Ry

     The total energy is the sum of the following terms:
     one-electron contribution =    -209.53834869 Ry
     hartree contribution      =     139.98642762 Ry
     xc contribution           =     -91.67895820 Ry
     ewald contribution        =    -308.20261710 Ry

     convergence has been achieved in   4 iterations

     Forces acting on atoms (cartesian axes, Ry/au):

     atom    1 type  1   force =    -0.00003086   -0.00101538    0.00058945
     atom    2 type  1   force =     0.00050746    0.00047646   -0.00044955
     atom    3 type  1   force =    -0.00015628    0.00092707   -0.00115049
     atom    4 type  1   force =     0.00003086    0.00101538   -0.00058945
     atom    5 type  1   force =    -0.00050746   -0.00047646    0.00044955
     atom    6 type  1   force =     0.00015628   -0.00092707    0.00115049
     atom    7 type  2   force =    -0.00068426   -0.00095357   -0.00061249
     atom    8 type  2   force =     0.00068426    0.00095357    0.00061249
     atom    9 type  3   force =    -0.00032033    0.00047689   -0.00012484
     atom   10 type  3   force =     0.00032033   -0.00047689    0.00012484

     Total force =     0.003570     Total SCF correction =     0.000151


     Computing stress (Cartesian axis) and pressure

          total   stress  (Ry/bohr**3)                   (kbar)     P=      171.74
   0.00083394  -0.00010621  -0.00011711          122.68      -15.62      -17.23
  -0.00010621   0.00065672   0.00035691          -15.62       96.61       52.50
  -0.00011711   0.00035691   0.00201170          -17.23       52.50      295.93

     Energy error            =      2.8E-05 Ry
     Gradient error          =      1.2E-03 Ry/Bohr

     number of scf cycles    =   6
     number of bfgs steps    =   5

     energy             old  =    -469.4334683495 Ry
     energy             new  =    -469.4334963722 Ry

     CASE: energy            _new < energy            _old

     new trust radius        =       0.0045765943 bohr
     new conv_thr            =       0.0000000100 Ry


ATOMIC_POSITIONS (angstrom)
O             6.6782504877        4.4013970469        0.6620037588
O             5.9087933105        3.7951142152        3.4264152205
O             7.5065537123        1.7153287944        2.0871513620
O             5.0050060265        1.3378129065        2.8776128049
O             5.7744632037        1.9440957383        0.1132013432
O             4.1767028019        4.0238811591        1.4524652017
Mg            4.1864465614        2.0487052330        1.2851022549
Mg            7.4968099528        3.6905047205        2.2545143088
Si            1.8354425501        0.9243251715        0.5514923538
Si            9.8478139640        4.8148847819        2.9881242099



     Writing config-only to output data dir ./Aknew_.save/
     NEW-OLD atomic charge density approx. for the potential

     Check: negative core charge=   -0.000002

     total cpu time spent up to now is      709.8 secs

     per-process dynamical memory:   142.1 Mb

     Self-consistent Calculation

     iteration #  1     ecut=    80.00 Ry     beta= 0.70
     Davidson diagonalization with overlap
     ethr =  1.00E-06,  avg # of iterations =  5.0

     Threshold (ethr) on eigenvalues was too large:
     Diagonalizing with lowered threshold

     Davidson diagonalization with overlap
     ethr =  6.63E-09,  avg # of iterations =  4.6

     total cpu time spent up to now is      750.3 secs

     total energy              =    -469.43351385 Ry
     estimated scf accuracy    <       0.00000656 Ry

     iteration #  2     ecut=    80.00 Ry     beta= 0.70
     Davidson diagonalization with overlap
     ethr =  1.02E-08,  avg # of iterations =  2.0

     total cpu time spent up to now is      764.2 secs

     total energy              =    -469.43351521 Ry
     estimated scf accuracy    <       0.00000039 Ry

     iteration #  3     ecut=    80.00 Ry     beta= 0.70
     Davidson diagonalization with overlap
     ethr =  6.14E-10,  avg # of iterations =  3.3

     total cpu time spent up to now is      779.0 secs

     total energy              =    -469.43351531 Ry
     estimated scf accuracy    <       0.00000009 Ry

     iteration #  4     ecut=    80.00 Ry     beta= 0.70
     Davidson diagonalization with overlap
     ethr =  1.34E-10,  avg # of iterations =  3.5

     total cpu time spent up to now is      794.5 secs

     End of self-consistent calculation

     Number of k-points >= 100: set verbosity='high' to print the bands.

     highest occupied level (ev):     8.5412

!    total energy              =    -469.43351533 Ry
     estimated scf accuracy    <          5.2E-09 Ry

     The total energy is the sum of the following terms:
     one-electron contribution =    -209.59758950 Ry
     hartree contribution      =     140.01478406 Ry
     xc contribution           =     -91.67899352 Ry
     ewald contribution        =    -308.17171636 Ry

     convergence has been achieved in   4 iterations

     Forces acting on atoms (cartesian axes, Ry/au):

     atom    1 type  1   force =     0.00040916   -0.00060764    0.00044262
     atom    2 type  1   force =     0.00049258    0.00070066   -0.00040018
     atom    3 type  1   force =    -0.00007716    0.00040086   -0.00002321
     atom    4 type  1   force =    -0.00040916    0.00060764   -0.00044262
     atom    5 type  1   force =    -0.00049258   -0.00070066    0.00040018
     atom    6 type  1   force =     0.00007716   -0.00040086    0.00002321
     atom    7 type  2   force =    -0.00029056   -0.00020248   -0.00038565
     atom    8 type  2   force =     0.00029056    0.00020248    0.00038565
     atom    9 type  3   force =    -0.00081572    0.00040798   -0.00031683
     atom   10 type  3   force =     0.00081572   -0.00040798    0.00031683

     Total force =     0.002449     Total SCF correction =     0.000077


     Computing stress (Cartesian axis) and pressure

          total   stress  (Ry/bohr**3)                   (kbar)     P=      171.68
   0.00083493  -0.00010360  -0.00011163          122.82      -15.24      -16.42
  -0.00010360   0.00065279   0.00035977          -15.24       96.03       52.92
  -0.00011163   0.00035977   0.00201351          -16.42       52.92      296.20

     Energy error            =      1.9E-05 Ry
     Gradient error          =      8.2E-04 Ry/Bohr

     bfgs converged in   7 scf cycles and   6 bfgs steps
     (criteria: energy <  1.0E-04 Ry, force <  1.0E-03 Ry/Bohr)

     End of BFGS Geometry Optimization

     Final energy             =    -469.4335153283 Ry

     File ./Aknew_.bfgs deleted, as requested
Begin final coordinates

ATOMIC_POSITIONS (angstrom)
O             6.6782504877        4.4013970469        0.6620037588
O             5.9087933105        3.7951142152        3.4264152205
O             7.5065537123        1.7153287944        2.0871513620
O             5.0050060265        1.3378129065        2.8776128049
O             5.7744632037        1.9440957383        0.1132013432
O             4.1767028019        4.0238811591        1.4524652017
Mg            4.1864465614        2.0487052330        1.2851022549
Mg            7.4968099528        3.6905047205        2.2545143088
Si            1.8354425501        0.9243251715        0.5514923538
Si            9.8478139640        4.8148847819        2.9881242099
End final coordinates



     Writing all to output data dir ./Aknew_.save/

     init_run     :      8.52s CPU      8.68s WALL (       1 calls)
     electrons    :    692.88s CPU    699.34s WALL (       7 calls)
     update_pot   :     19.79s CPU     19.85s WALL (       6 calls)
     forces       :     25.66s CPU     25.78s WALL (       7 calls)
     stress       :     51.14s CPU     51.27s WALL (       7 calls)

     Called by init_run:
     wfcinit      :      4.66s CPU      4.76s WALL (       1 calls)
     potinit      :      1.53s CPU      1.57s WALL (       1 calls)
     hinit0       :      2.25s CPU      2.26s WALL (       1 calls)

     Called by electrons:
     c_bands      :    616.60s CPU    621.68s WALL (      40 calls)
     sum_band     :     70.09s CPU     70.82s WALL (      40 calls)
     v_of_rho     :      4.61s CPU      5.24s WALL (      44 calls)
     newd         :      1.40s CPU      1.51s WALL (      44 calls)
     mix_rho      :      0.20s CPU      0.20s WALL (      40 calls)

     Called by c_bands:
     init_us_2    :     13.22s CPU     13.27s WALL (   10735 calls)
     init_us_2:cp :     13.17s CPU     13.24s WALL (   10735 calls)
     cegterg      :    554.02s CPU    558.97s WALL (    4520 calls)

     Called by *egterg:
     cdiaghg      :     24.58s CPU     24.74s WALL (   20346 calls)
     h_psi        :    400.35s CPU    404.80s WALL (   21476 calls)
     s_psi        :     18.26s CPU     18.32s WALL (   21476 calls)
     g_psi        :      2.44s CPU      2.45s WALL (   16843 calls)

     Called by h_psi:
     h_psi:calbec :     34.29s CPU     34.47s WALL (   21476 calls)
     vloc_psi     :    339.71s CPU    343.89s WALL (   21476 calls)
     add_vuspsi   :     21.11s CPU     21.17s WALL (   21476 calls)

     General routines
     calbec       :     47.96s CPU     48.22s WALL (   29951 calls)
     fft          :      3.15s CPU      3.32s WALL (     742 calls)
     ffts         :      0.29s CPU      0.29s WALL (      84 calls)
     fftw         :    342.62s CPU    346.69s WALL ( 1093966 calls)
     interpolate  :      0.45s CPU      0.45s WALL (      44 calls)

     Parallel routines

     PWSCF        :  13m19.01s CPU  13m26.30s WALL


   This run was terminated on:  14:28:47   4Aug2025            

=------------------------------------------------------------------------------=
   JOB DONE.
=------------------------------------------------------------------------------=
