 O Mg Si 
 1.0000000000000000
     5.3301631452690090    0.0000000000000000    0.0000000000000000
     3.1910632467774707    4.2693974411744984    0.0000000000000000
     3.1910632467774707    1.5988211828146521    3.9587277421023166
 O   Mg  Si 
   6   2   2
Direct
  0.5622313830842575  0.9548345363362006  0.2038758700921137
  0.2038758701089846  0.5622313830771025  0.9548345363264846
  0.9548345363193299  0.2038758700992687  0.5622313830939731
  0.4377686169157427  0.0451654636637995  0.7961241299078863
  0.7961241298910156  0.4377686169228975  0.0451654636735153
  0.0451654636806704  0.7961241299007314  0.4377686169060268
  0.3605110923456545  0.3605110923456548  0.3605110923456544
  0.6394889076543456  0.6394889076543454  0.6394889076543456
  0.1578746042467410  0.1578746042467411  0.1578746042467410
  0.8421253957532588  0.8421253957532588  0.8421253957532590
