
     Program PWSCF v.7.0 starts on  4Aug2025 at 12:37:27 

     This program is part of the open-source Quantum ESPRESSO suite
     for quantum simulation of materials; please cite
         "P. Giannozzi et al., J. Phys.:Condens. Matter 21 395502 (2009);
         "P. Giannozzi et al., J. Phys.:Condens. Matter 29 465901 (2017);
         "P. Giannozzi et al., J. Chem. Phys. 152 154105 (2020);
          URL http://www.quantum-espresso.org", 
     in publications or presentations arising from this work. More details at
     http://www.quantum-espresso.org/quote

     Parallel version (MPI & OpenMP), running on      16 processor cores
     Number of MPI processes:                16
     Threads/MPI process:                     1

     MPI processes distributed on     1 nodes
     K-points division:     npool     =       4
     R & G space division:  proc/nbgrp/npool/nimage =       4
     4321 MiB available memory on the printing compute node when the environment starts

     Waiting for input...
     Reading input from standard input
Warning: card &CELL ignored
Warning: card    CELL_DYNAMICS    = 'BFGS' ignored
Warning: card    PRESS            = 150 ignored
Warning: card    PRESS_CONV_THR   = 0.05 ignored
Warning: card / ignored

     Current dimensions of program PWSCF are:
     Max number of different atomic species (ntypx) = 10
     Max number of k-points (npk) =  40000
     Max angular momentum in pseudopotentials (lmaxx) =  4
     file O.pbe-nl-rrkjus_psl.1.0.0.UPF: wavefunction(s)  2S renormalized
     file Mg.pbe-spnl-rrkjus_psl.1.0.0.UPF: wavefunction(s)  2P renormalized
     Message from routine setup:
     using ibrav=0 with symmetry is DISCOURAGED, use correct ibrav instead

     Subspace diagonalization in iterative solution of the eigenvalue problem:
     one sub-group per band group will be used
     scalapack distributed-memory algorithm (size of sub-group:  2*  2 procs)


     Parallelization info
     --------------------
     sticks:   dense  smooth     PW     G-vecs:    dense   smooth      PW
     Min         938     502    147                36558    14251    2255
     Max         939     503    148                36559    14252    2256
     Sum        3755    2009    589               146235    57007    9023

     Using Slab Decomposition



     bravais-lattice index     =            0
     lattice parameter (alat)  =       9.7704  a.u.
     unit-cell volume          =     589.6999 (a.u.)^3
     number of atoms/cell      =           10
     number of atomic types    =            3
     number of electrons       =        64.00
     number of Kohn-Sham states=           32
     kinetic-energy cutoff     =      80.0000  Ry
     charge density cutoff     =     600.0000  Ry
     scf convergence threshold =      1.0E-06
     mixing beta               =       0.7000
     number of iterations used =            8  plain     mixing
     energy convergence thresh.=      1.0E-04
     force convergence thresh. =      1.0E-03
     Exchange-correlation= PBE
                           (   1   4   3   4   0   0   0)
     nstep                     =           50


     celldm(1)=   9.770372  celldm(2)=   0.000000  celldm(3)=   0.000000
     celldm(4)=   0.000000  celldm(5)=   0.000000  celldm(6)=   0.000000

     crystal axes: (cart. coord. in units of alat)
               a(1) = (   1.000000   0.000000   0.000000 )  
               a(2) = (   0.598680   0.825761   0.000000 )  
               a(3) = (   0.598680   0.309234   0.765673 )  

     reciprocal axes: (cart. coord. in units 2 pi/alat)
               b(1) = (  1.000000 -0.725004 -0.489091 )  
               b(2) = (  0.000000  1.211004 -0.489091 )  
               b(3) = (  0.000000  0.000000  1.306040 )  


     PseudoPot. # 1 for O  read from file:
     /home/tim/espresso/pseudo/O.pbe-nl-rrkjus_psl.1.0.0.UPF
     MD5 check sum: 233c8028909f741e7889d61785a595bc
     Pseudo is Ultrasoft + core correction, Zval =  6.0
     Generated using 'atomic' code by A. Dal Corso  v.7.0
     Using radial grid of 1095 points,  4 beta functions with: 
                l(1) =   0
                l(2) =   0
                l(3) =   1
                l(4) =   1
     Q(r) pseudized with 0 coefficients 


     PseudoPot. # 2 for Mg read from file:
     /home/tim/espresso/pseudo/Mg.pbe-spnl-rrkjus_psl.1.0.0.UPF
     MD5 check sum: 37caad9c05fe2a5f639d8b65b442f5f9
     Pseudo is Ultrasoft + core correction, Zval = 10.0
     Generated using 'atomic' code by A. Dal Corso  v.7.0
     Using radial grid of 1129 points,  4 beta functions with: 
                l(1) =   0
                l(2) =   0
                l(3) =   1
                l(4) =   1
     Q(r) pseudized with 0 coefficients 


     PseudoPot. # 3 for Si read from file:
     /home/tim/espresso/pseudo/Si.pbe-nl-rrkjus_psl.1.0.0.UPF
     MD5 check sum: ceeb670d53204f1f4f48a0a0dd9ca3d4
     Pseudo is Ultrasoft + core correction, Zval =  4.0
     Generated using 'atomic' code by A. Dal Corso  v.7.0
     Using radial grid of 1141 points,  4 beta functions with: 
                l(1) =   0
                l(2) =   0
                l(3) =   1
                l(4) =   1
     Q(r) pseudized with 0 coefficients 


     atomic species   valence    mass     pseudopotential
        O              6.00    15.99900     O ( 1.00)
        Mg            10.00    24.30500     Mg( 1.00)
        Si             4.00    28.08500     Si( 1.00)

      2 Sym. Ops., with inversion, found



   Cartesian axes

     site n.     atom                  positions (alat units)
         1           O   tau(   1) = (   1.2559284   0.8515105   0.1561023  )
         2           O   tau(   2) = (   1.1121132   0.7595363   0.7310911  )
         3           O   tau(   3) = (   1.4134878   0.3422140   0.4304855  )
         4           O   tau(   4) = (   0.9414321   0.2834848   0.6095708  )
         5           O   tau(   5) = (   1.0852472   0.3754589   0.0345820  )
         6           O   tau(   6) = (   0.7838726   0.7927813   0.3351877  )
         7           Mg  tau(   7) = (   0.7921728   0.4091784   0.2760337  )
         8           Mg  tau(   8) = (   1.4051876   0.7258169   0.4896395  )
         9           Si  tau(   9) = (   0.3469074   0.1791869   0.1208803  )
        10           Si  tau(  10) = (   1.8504530   0.9558083   0.6447928  )

     number of k points=   504

     Number of k-points >= 100: set verbosity='high' to print them.

     Dense  grid:   146235 G-vectors     FFT dimensions: (  80,  80,  80)

     Smooth grid:    57007 G-vectors     FFT dimensions: (  60,  60,  60)

     Estimated max dynamical RAM per process >     148.86 MB

     Estimated total dynamical RAM >       2.22 GB

     Check: negative core charge=   -0.000002

     Initial potential from superposition of free atoms

     starting charge      63.9970, renormalised to      64.0000
     Starting wfcs are   42 randomized atomic wfcs

     total cpu time spent up to now is        8.9 secs

     per-process dynamical memory:   148.0 Mb

     Self-consistent Calculation

     iteration #  1     ecut=    80.00 Ry     beta= 0.70
     Davidson diagonalization with overlap
     ethr =  1.00E-02,  avg # of iterations =  2.0

     total cpu time spent up to now is       23.2 secs

     total energy              =    -468.53738886 Ry
     estimated scf accuracy    <       2.07915341 Ry

     iteration #  2     ecut=    80.00 Ry     beta= 0.70
     Davidson diagonalization with overlap
     ethr =  3.25E-03,  avg # of iterations =  3.0

     total cpu time spent up to now is       42.7 secs

     total energy              =    -469.24611504 Ry
     estimated scf accuracy    <       1.28091907 Ry

     iteration #  3     ecut=    80.00 Ry     beta= 0.70
     Davidson diagonalization with overlap
     ethr =  2.00E-03,  avg # of iterations =  2.0

     total cpu time spent up to now is       58.9 secs

     total energy              =    -469.42363799 Ry
     estimated scf accuracy    <       0.04605554 Ry

     iteration #  4     ecut=    80.00 Ry     beta= 0.70
     Davidson diagonalization with overlap
     ethr =  7.20E-05,  avg # of iterations =  5.2

     total cpu time spent up to now is       81.2 secs

     total energy              =    -469.47101603 Ry
     estimated scf accuracy    <       0.05955098 Ry

     iteration #  5     ecut=    80.00 Ry     beta= 0.70
     Davidson diagonalization with overlap
     ethr =  7.20E-05,  avg # of iterations =  2.0

     total cpu time spent up to now is       94.8 secs

     total energy              =    -469.46500818 Ry
     estimated scf accuracy    <       0.02085039 Ry

     iteration #  6     ecut=    80.00 Ry     beta= 0.70
     Davidson diagonalization with overlap
     ethr =  3.26E-05,  avg # of iterations =  2.0

     total cpu time spent up to now is      110.2 secs

     total energy              =    -469.46807230 Ry
     estimated scf accuracy    <       0.00103867 Ry

     iteration #  7     ecut=    80.00 Ry     beta= 0.70
     Davidson diagonalization with overlap
     ethr =  1.62E-06,  avg # of iterations =  5.5

     total cpu time spent up to now is      135.7 secs

     total energy              =    -469.46909504 Ry
     estimated scf accuracy    <       0.00014394 Ry

     iteration #  8     ecut=    80.00 Ry     beta= 0.70
     Davidson diagonalization with overlap
     ethr =  2.25E-07,  avg # of iterations =  3.1

     total cpu time spent up to now is      154.8 secs

     total energy              =    -469.46880401 Ry
     estimated scf accuracy    <       0.00098875 Ry

     iteration #  9     ecut=    80.00 Ry     beta= 0.70
     Davidson diagonalization with overlap
     ethr =  2.25E-07,  avg # of iterations =  3.2

     total cpu time spent up to now is      174.0 secs

     total energy              =    -469.46884576 Ry
     estimated scf accuracy    <       0.00010908 Ry

     iteration # 10     ecut=    80.00 Ry     beta= 0.70
     Davidson diagonalization with overlap
     ethr =  1.70E-07,  avg # of iterations =  2.0

     total cpu time spent up to now is      189.4 secs

     total energy              =    -469.46886877 Ry
     estimated scf accuracy    <       0.00000118 Ry

     iteration # 11     ecut=    80.00 Ry     beta= 0.70
     Davidson diagonalization with overlap
     ethr =  1.85E-09,  avg # of iterations =  5.5

     total cpu time spent up to now is      214.3 secs

     End of self-consistent calculation

     Number of k-points >= 100: set verbosity='high' to print the bands.

     highest occupied level (ev):     8.0019

!    total energy              =    -469.46886959 Ry
     estimated scf accuracy    <       0.00000089 Ry

     The total energy is the sum of the following terms:
     one-electron contribution =    -214.87199102 Ry
     hartree contribution      =     141.41859125 Ry
     xc contribution           =     -91.45641126 Ry
     ewald contribution        =    -304.55905856 Ry

     convergence has been achieved in  11 iterations

     Forces acting on atoms (cartesian axes, Ry/au):

     atom    1 type  1   force =     0.01489566   -0.00155907    0.00352000
     atom    2 type  1   force =     0.02549389    0.00022792    0.00198471
     atom    3 type  1   force =     0.00866465    0.00805751   -0.00063460
     atom    4 type  1   force =    -0.01489566    0.00155907   -0.00352000
     atom    5 type  1   force =    -0.02549389   -0.00022792   -0.00198471
     atom    6 type  1   force =    -0.00866465   -0.00805751    0.00063460
     atom    7 type  2   force =    -0.00027638    0.00191694    0.00347571
     atom    8 type  2   force =     0.00027638   -0.00191694   -0.00347571
     atom    9 type  3   force =    -0.00227308   -0.00640435    0.00053617
     atom   10 type  3   force =     0.00227308    0.00640435   -0.00053617

     Total force =     0.046762     Total SCF correction =     0.001762


     Computing stress (Cartesian axis) and pressure

          total   stress  (Ry/bohr**3)                   (kbar)     P=       81.76
   0.00101869   0.00003155  -0.00001602          149.85        4.64       -2.36
   0.00003155   0.00030899   0.00003773            4.64       45.45        5.55
  -0.00001602   0.00003773   0.00033970           -2.36        5.55       49.97


     BFGS Geometry Optimization
     Energy error            =      0.0E+00 Ry
     Gradient error          =      2.5E-02 Ry/Bohr

     number of scf cycles    =   1
     number of bfgs steps    =   0

     energy             new  =    -469.4688695878 Ry

     new trust radius        =       0.0255720445 bohr
     new conv_thr            =       0.0000010000 Ry


ATOMIC_POSITIONS (angstrom)
O             6.5013565347        4.4017041598        0.8089517672
O             5.7634033848        3.9271195217        3.7809802306
O             7.3126820749        1.7735984147        2.2253851582
O             4.8595644150        1.4665144641        3.1497759749
O             5.5975175649        1.9410991023        0.1777475115
O             4.0482388748        4.0946202093        1.7333425839
Mg            4.0955917695        2.1165723047        1.4290045282
Mg            7.2653291801        3.7516463193        2.5297232139
Si            1.7923980376        0.9230536590        0.6252663070
Si            9.5685229121        4.9451649650        3.3334614351



     Writing config-only to output data dir ./Aknew_.save/
     NEW-OLD atomic charge density approx. for the potential

     Check: negative core charge=   -0.000002

     total cpu time spent up to now is      227.5 secs

     per-process dynamical memory:   157.6 Mb

     Self-consistent Calculation

     iteration #  1     ecut=    80.00 Ry     beta= 0.70
     Davidson diagonalization with overlap
     ethr =  1.00E-06,  avg # of iterations =  4.8

     total cpu time spent up to now is      253.4 secs

     total energy              =    -469.47010178 Ry
     estimated scf accuracy    <       0.00054670 Ry

     iteration #  2     ecut=    80.00 Ry     beta= 0.70
     Davidson diagonalization with overlap
     ethr =  8.54E-07,  avg # of iterations =  2.0

     total cpu time spent up to now is      268.2 secs

     total energy              =    -469.47026702 Ry
     estimated scf accuracy    <       0.00008716 Ry

     iteration #  3     ecut=    80.00 Ry     beta= 0.70
     Davidson diagonalization with overlap
     ethr =  1.36E-07,  avg # of iterations =  2.8

     total cpu time spent up to now is      286.7 secs

     total energy              =    -469.47028707 Ry
     estimated scf accuracy    <       0.00000138 Ry

     iteration #  4     ecut=    80.00 Ry     beta= 0.70
     Davidson diagonalization with overlap
     ethr =  2.15E-09,  avg # of iterations =  7.4

     total cpu time spent up to now is      319.9 secs

     End of self-consistent calculation

     Number of k-points >= 100: set verbosity='high' to print the bands.

     highest occupied level (ev):     7.9857

!    total energy              =    -469.47028993 Ry
     estimated scf accuracy    <       0.00000041 Ry

     The total energy is the sum of the following terms:
     one-electron contribution =    -215.05617859 Ry
     hartree contribution      =     141.53008047 Ry
     xc contribution           =     -91.43125662 Ry
     ewald contribution        =    -304.51293519 Ry

     convergence has been achieved in   4 iterations

     Forces acting on atoms (cartesian axes, Ry/au):

     atom    1 type  1   force =     0.00650096   -0.00246013   -0.00101700
     atom    2 type  1   force =     0.00652764    0.00026932    0.00240240
     atom    3 type  1   force =     0.00273302    0.00085154   -0.00190412
     atom    4 type  1   force =    -0.00650096    0.00246013    0.00101700
     atom    5 type  1   force =    -0.00652764   -0.00026932   -0.00240240
     atom    6 type  1   force =    -0.00273302   -0.00085154    0.00190412
     atom    7 type  2   force =    -0.00194828    0.00182770    0.00336793
     atom    8 type  2   force =     0.00194828   -0.00182770   -0.00336793
     atom    9 type  3   force =    -0.00374558   -0.00135249   -0.00144086
     atom   10 type  3   force =     0.00374558    0.00135249    0.00144086

     Total force =     0.017090     Total SCF correction =     0.003297
     SCF correction compared to forces is large: reduce conv_thr to get better values


     Computing stress (Cartesian axis) and pressure

          total   stress  (Ry/bohr**3)                   (kbar)     P=       72.48
   0.00088708   0.00001634  -0.00004004          130.49        2.40       -5.89
   0.00001634   0.00027321   0.00004260            2.40       40.19        6.27
  -0.00004004   0.00004260   0.00031791           -5.89        6.27       46.77

     Energy error            =      1.4E-03 Ry
     Gradient error          =      6.5E-03 Ry/Bohr

     number of scf cycles    =   2
     number of bfgs steps    =   1

     energy             old  =    -469.4688695878 Ry
     energy             new  =    -469.4702899291 Ry

     CASE: energy            _new < energy            _old

     new trust radius        =       0.0121071862 bohr
     new conv_thr            =       0.0000000653 Ry


ATOMIC_POSITIONS (angstrom)
O             6.5069690720        4.3997638352        0.8083371524
O             5.7695133713        3.9273345128        3.7828958332
O             7.3151497685        1.7746085147        2.2239091172
O             4.8539518777        1.4684547887        3.1503905897
O             5.5914075784        1.9408841112        0.1758319089
O             4.0457711812        4.0936101093        1.7348186249
Mg            4.0940982886        2.1180479852        1.4317212375
Mg            7.2668226610        3.7501706388        2.5270065046
Si            1.7894483930        0.9217371804        0.6241951418
Si            9.5714725567        4.9464814436        3.3345326003



     Writing config-only to output data dir ./Aknew_.save/
     NEW-OLD atomic charge density approx. for the potential

     Check: negative core charge=   -0.000002

     total cpu time spent up to now is      332.6 secs

     per-process dynamical memory:   157.6 Mb

     Self-consistent Calculation

     iteration #  1     ecut=    80.00 Ry     beta= 0.70
     Davidson diagonalization with overlap
     ethr =  1.00E-06,  avg # of iterations =  6.6

     total cpu time spent up to now is      360.4 secs

     total energy              =    -469.47053074 Ry
     estimated scf accuracy    <       0.00012903 Ry

     iteration #  2     ecut=    80.00 Ry     beta= 0.70
     Davidson diagonalization with overlap
     ethr =  2.02E-07,  avg # of iterations =  2.3

     total cpu time spent up to now is      377.1 secs

     total energy              =    -469.47056829 Ry
     estimated scf accuracy    <       0.00001633 Ry

     iteration #  3     ecut=    80.00 Ry     beta= 0.70
     Davidson diagonalization with overlap
     ethr =  2.55E-08,  avg # of iterations =  3.9

     total cpu time spent up to now is      395.0 secs

     total energy              =    -469.47057351 Ry
     estimated scf accuracy    <       0.00000048 Ry

     iteration #  4     ecut=    80.00 Ry     beta= 0.70
     Davidson diagonalization with overlap
     ethr =  7.47E-10,  avg # of iterations =  4.2

     total cpu time spent up to now is      416.0 secs

     total energy              =    -469.47057367 Ry
     estimated scf accuracy    <       0.00000010 Ry

     iteration #  5     ecut=    80.00 Ry     beta= 0.70
     Davidson diagonalization with overlap
     ethr =  1.51E-10,  avg # of iterations =  3.2

     total cpu time spent up to now is      433.8 secs

     End of self-consistent calculation

     Number of k-points >= 100: set verbosity='high' to print the bands.

     highest occupied level (ev):     7.9807

!    total energy              =    -469.47057369 Ry
     estimated scf accuracy    <       0.00000002 Ry

     The total energy is the sum of the following terms:
     one-electron contribution =    -215.11138027 Ry
     hartree contribution      =     141.56718085 Ry
     xc contribution           =     -91.42002760 Ry
     ewald contribution        =    -304.50634668 Ry

     convergence has been achieved in   5 iterations

     Forces acting on atoms (cartesian axes, Ry/au):

     atom    1 type  1   force =     0.00131938   -0.00156338   -0.00229391
     atom    2 type  1   force =    -0.00023104   -0.00014033    0.00148400
     atom    3 type  1   force =    -0.00013564   -0.00211948   -0.00189840
     atom    4 type  1   force =    -0.00131938    0.00156338    0.00229391
     atom    5 type  1   force =     0.00023104    0.00014033   -0.00148400
     atom    6 type  1   force =     0.00013564    0.00211948    0.00189840
     atom    7 type  2   force =    -0.00183534    0.00057414    0.00076879
     atom    8 type  2   force =     0.00183534   -0.00057414   -0.00076879
     atom    9 type  3   force =    -0.00219686   -0.00006111   -0.00134242
     atom   10 type  3   force =     0.00219686    0.00006111    0.00134242

     Total force =     0.007843     Total SCF correction =     0.000143


     Computing stress (Cartesian axis) and pressure

          total   stress  (Ry/bohr**3)                   (kbar)     P=       68.38
   0.00081951   0.00000871  -0.00004652          120.55        1.28       -6.84
   0.00000871   0.00026610   0.00004540            1.28       39.15        6.68
  -0.00004652   0.00004540   0.00030899           -6.84        6.68       45.45

     Energy error            =      2.8E-04 Ry
     Gradient error          =      2.3E-03 Ry/Bohr

     number of scf cycles    =   3
     number of bfgs steps    =   2

     energy             old  =    -469.4702899291 Ry
     energy             new  =    -469.4705736945 Ry

     CASE: energy            _new < energy            _old

     new trust radius        =       0.0055960316 bohr
     new conv_thr            =       0.0000000229 Ry


ATOMIC_POSITIONS (angstrom)
O             6.5091024625        4.3983894213        0.8068110842
O             5.7709962764        3.9272767746        3.7842263309
O             7.3156697403        1.7735668675        2.2224017634
O             4.8518184872        1.4698292026        3.1519166579
O             5.5899246733        1.9409418494        0.1745014112
O             4.0452512094        4.0946517565        1.7363259787
Mg            4.0926421410        2.1187006475        1.4327265375
Mg            7.2682788086        3.7495179765        2.5260012046
Si            1.7874834139        0.9213146684        0.6231558159
Si            9.5734375358        4.9469039556        3.3355719262



     Writing config-only to output data dir ./Aknew_.save/
     NEW-OLD atomic charge density approx. for the potential

     Check: negative core charge=   -0.000002

     total cpu time spent up to now is      447.0 secs

     per-process dynamical memory:   157.6 Mb

     Self-consistent Calculation

     iteration #  1     ecut=    80.00 Ry     beta= 0.70
     Davidson diagonalization with overlap
     ethr =  1.00E-06,  avg # of iterations =  4.4

     Threshold (ethr) on eigenvalues was too large:
     Diagonalizing with lowered threshold

     Davidson diagonalization with overlap
     ethr =  2.69E-08,  avg # of iterations =  4.9

     total cpu time spent up to now is      491.2 secs

     total energy              =    -469.47063595 Ry
     estimated scf accuracy    <       0.00002039 Ry

     iteration #  2     ecut=    80.00 Ry     beta= 0.70
     Davidson diagonalization with overlap
     ethr =  3.19E-08,  avg # of iterations =  2.0

     total cpu time spent up to now is      507.5 secs

     total energy              =    -469.47063935 Ry
     estimated scf accuracy    <       0.00000092 Ry

     iteration #  3     ecut=    80.00 Ry     beta= 0.70
     Davidson diagonalization with overlap
     ethr =  1.43E-09,  avg # of iterations =  3.2

     total cpu time spent up to now is      524.8 secs

     total energy              =    -469.47063958 Ry
     estimated scf accuracy    <       0.00000015 Ry

     iteration #  4     ecut=    80.00 Ry     beta= 0.70
     Davidson diagonalization with overlap
     ethr =  2.35E-10,  avg # of iterations =  3.3

     total cpu time spent up to now is      542.6 secs

     End of self-consistent calculation

     Number of k-points >= 100: set verbosity='high' to print the bands.

     highest occupied level (ev):     7.9805

!    total energy              =    -469.47063962 Ry
     estimated scf accuracy    <       0.00000002 Ry

     The total energy is the sum of the following terms:
     one-electron contribution =    -215.10641122 Ry
     hartree contribution      =     141.56648642 Ry
     xc contribution           =     -91.41893599 Ry
     ewald contribution        =    -304.51177884 Ry

     convergence has been achieved in   4 iterations

     Forces acting on atoms (cartesian axes, Ry/au):

     atom    1 type  1   force =    -0.00001313   -0.00070845   -0.00144115
     atom    2 type  1   force =    -0.00104635   -0.00029833    0.00063232
     atom    3 type  1   force =    -0.00050485   -0.00175205   -0.00135812
     atom    4 type  1   force =     0.00001313    0.00070845    0.00144115
     atom    5 type  1   force =     0.00104635    0.00029833   -0.00063232
     atom    6 type  1   force =     0.00050485    0.00175205    0.00135812
     atom    7 type  2   force =    -0.00121901    0.00025247    0.00008264
     atom    8 type  2   force =     0.00121901   -0.00025247   -0.00008264
     atom    9 type  3   force =    -0.00088977    0.00014936   -0.00062796
     atom   10 type  3   force =     0.00088977   -0.00014936    0.00062796

     Total force =     0.004919     Total SCF correction =     0.000173


     Computing stress (Cartesian axis) and pressure

          total   stress  (Ry/bohr**3)                   (kbar)     P=       68.10
   0.00080368   0.00000929  -0.00004472          118.22        1.37       -6.58
   0.00000929   0.00027337   0.00004919            1.37       40.21        7.24
  -0.00004472   0.00004919   0.00031176           -6.58        7.24       45.86

     Energy error            =      6.6E-05 Ry
     Gradient error          =      1.8E-03 Ry/Bohr

     number of scf cycles    =   4
     number of bfgs steps    =   3

     energy             old  =    -469.4705736945 Ry
     energy             new  =    -469.4706396156 Ry

     CASE: energy            _new < energy            _old

     new trust radius        =       0.0043555659 bohr
     new conv_thr            =       0.0000000100 Ry


ATOMIC_POSITIONS (angstrom)
O             6.5102291743        4.3972903505        0.8052044030
O             5.7713037545        3.9270096681        3.7852541395
O             7.3156655561        1.7719815225        2.2207287205
O             4.8506917754        1.4709282734        3.1535233391
O             5.5896171952        1.9412089559        0.1734736026
O             4.0452553936        4.0962371015        1.7379990216
Mg            4.0911143445        2.1192066734        1.4332648778
Mg            7.2698066051        3.7490119506        2.5254628643
Si            1.7860128502        0.9211365394        0.6223031813
Si            9.5749080995        4.9470820846        3.3364245608



     Writing config-only to output data dir ./Aknew_.save/
     NEW-OLD atomic charge density approx. for the potential

     Check: negative core charge=   -0.000002

     total cpu time spent up to now is      555.4 secs

     per-process dynamical memory:   157.6 Mb

     Self-consistent Calculation

     iteration #  1     ecut=    80.00 Ry     beta= 0.70
     Davidson diagonalization with overlap
     ethr =  1.00E-06,  avg # of iterations =  3.3

     Threshold (ethr) on eigenvalues was too large:
     Diagonalizing with lowered threshold

     Davidson diagonalization with overlap
     ethr =  1.95E-08,  avg # of iterations =  5.8

     total cpu time spent up to now is      601.1 secs

     total energy              =    -469.47066299 Ry
     estimated scf accuracy    <       0.00001494 Ry

     iteration #  2     ecut=    80.00 Ry     beta= 0.70
     Davidson diagonalization with overlap
     ethr =  2.33E-08,  avg # of iterations =  2.0

     total cpu time spent up to now is      616.8 secs

     total energy              =    -469.47066555 Ry
     estimated scf accuracy    <       0.00000089 Ry

     iteration #  3     ecut=    80.00 Ry     beta= 0.70
     Davidson diagonalization with overlap
     ethr =  1.39E-09,  avg # of iterations =  2.5

     total cpu time spent up to now is      633.1 secs

     total energy              =    -469.47066576 Ry
     estimated scf accuracy    <       0.00000018 Ry

     iteration #  4     ecut=    80.00 Ry     beta= 0.70
     Davidson diagonalization with overlap
     ethr =  2.84E-10,  avg # of iterations =  2.8

     total cpu time spent up to now is      649.9 secs

     total energy              =    -469.47066580 Ry
     estimated scf accuracy    <       0.00000001 Ry

     iteration #  5     ecut=    80.00 Ry     beta= 0.70
     Davidson diagonalization with overlap
     ethr =  1.97E-11,  avg # of iterations =  4.8

     total cpu time spent up to now is      669.6 secs

     End of self-consistent calculation

     Number of k-points >= 100: set verbosity='high' to print the bands.

     highest occupied level (ev):     7.9814

!    total energy              =    -469.47066581 Ry
     estimated scf accuracy    <          1.1E-09 Ry

     The total energy is the sum of the following terms:
     one-electron contribution =    -215.09444302 Ry
     hartree contribution      =     141.55953265 Ry
     xc contribution           =     -91.42025817 Ry
     ewald contribution        =    -304.51549727 Ry

     convergence has been achieved in   5 iterations

     Forces acting on atoms (cartesian axes, Ry/au):

     atom    1 type  1   force =    -0.00025604    0.00001324   -0.00018313
     atom    2 type  1   force =    -0.00046794   -0.00026319   -0.00015860
     atom    3 type  1   force =    -0.00020150   -0.00044582   -0.00051061
     atom    4 type  1   force =     0.00025604   -0.00001324    0.00018313
     atom    5 type  1   force =     0.00046794    0.00026319    0.00015860
     atom    6 type  1   force =     0.00020150    0.00044582    0.00051061
     atom    7 type  2   force =    -0.00039492    0.00009554   -0.00029050
     atom    8 type  2   force =     0.00039492   -0.00009554    0.00029050
     atom    9 type  3   force =     0.00014788    0.00016011    0.00003979
     atom   10 type  3   force =    -0.00014788   -0.00016011   -0.00003979

     Total force =     0.001556     Total SCF correction =     0.000115


     Computing stress (Cartesian axis) and pressure

          total   stress  (Ry/bohr**3)                   (kbar)     P=       68.52
   0.00079985   0.00001245  -0.00004104          117.66        1.83       -6.04
   0.00001245   0.00028245   0.00005323            1.83       41.55        7.83
  -0.00004104   0.00005323   0.00031504           -6.04        7.83       46.34

     Energy error            =      2.6E-05 Ry
     Gradient error          =      5.1E-04 Ry/Bohr

     bfgs converged in   5 scf cycles and   4 bfgs steps
     (criteria: energy <  1.0E-04 Ry, force <  1.0E-03 Ry/Bohr)

     End of BFGS Geometry Optimization

     Final energy             =    -469.4706658068 Ry

     File ./Aknew_.bfgs deleted, as requested
Begin final coordinates

ATOMIC_POSITIONS (angstrom)
O             6.5102291743        4.3972903505        0.8052044030
O             5.7713037545        3.9270096681        3.7852541395
O             7.3156655561        1.7719815225        2.2207287205
O             4.8506917754        1.4709282734        3.1535233391
O             5.5896171952        1.9412089559        0.1734736026
O             4.0452553936        4.0962371015        1.7379990216
Mg            4.0911143445        2.1192066734        1.4332648778
Mg            7.2698066051        3.7490119506        2.5254628643
Si            1.7860128502        0.9211365394        0.6223031813
Si            9.5749080995        4.9470820846        3.3364245608
End final coordinates



     Writing all to output data dir ./Aknew_.save/

     init_run     :      8.09s CPU      8.28s WALL (       1 calls)
     electrons    :    603.48s CPU    608.86s WALL (       5 calls)
     update_pot   :     10.30s CPU     10.35s WALL (       4 calls)
     forces       :     17.71s CPU     17.80s WALL (       5 calls)
     stress       :     34.37s CPU     34.47s WALL (       5 calls)

     Called by init_run:
     wfcinit      :      4.79s CPU      4.92s WALL (       1 calls)
     potinit      :      1.19s CPU      1.23s WALL (       1 calls)
     hinit0       :      2.04s CPU      2.04s WALL (       1 calls)

     Called by electrons:
     c_bands      :    536.95s CPU    541.22s WALL (      31 calls)
     sum_band     :     61.34s CPU     61.88s WALL (      31 calls)
     v_of_rho     :      3.81s CPU      4.37s WALL (      34 calls)
     newd         :      1.51s CPU      1.61s WALL (      34 calls)
     mix_rho      :      0.17s CPU      0.18s WALL (      31 calls)

     Called by c_bands:
     init_us_2    :     11.90s CPU     11.92s WALL (    9198 calls)
     init_us_2:cp :     11.86s CPU     11.90s WALL (    9198 calls)
     cegterg      :    476.95s CPU    481.10s WALL (    3906 calls)

     Called by *egterg:
     cdiaghg      :     20.64s CPU     20.78s WALL (   17259 calls)
     h_psi        :    341.36s CPU    345.14s WALL (   18141 calls)
     s_psi        :     16.84s CPU     16.90s WALL (   18141 calls)
     g_psi        :      2.16s CPU      2.17s WALL (   14109 calls)

     Called by h_psi:
     h_psi:calbec :     29.38s CPU     29.54s WALL (   18141 calls)
     vloc_psi     :    287.59s CPU    291.12s WALL (   18141 calls)
     add_vuspsi   :     19.45s CPU     19.51s WALL (   18141 calls)

     General routines
     calbec       :     41.35s CPU     41.56s WALL (   25197 calls)
     fft          :      2.44s CPU      2.57s WALL (     563 calls)
     ffts         :      0.26s CPU      0.26s WALL (      65 calls)
     fftw         :    288.58s CPU    291.94s WALL (  938924 calls)
     interpolate  :      0.40s CPU      0.40s WALL (      34 calls)

     Parallel routines

     PWSCF        :  11m15.63s CPU  11m21.84s WALL


   This run was terminated on:  12:48:49   4Aug2025            

=------------------------------------------------------------------------------=
   JOB DONE.
=------------------------------------------------------------------------------=
