&CONTROL
   calculation      = 'relax'
   tstress          = .true.
   tprnfor          = .true.
   prefix           = 'Aknew_'
/
&SYSTEM
   ecutwfc          = 80
   ecutrho          = 600
   ntyp             = 3
   nat              = 10
   ibrav            = 0
/
&ELECTRONS
   conv_thr         = 1e-09
   mixing_beta      = 0.4
/
&IONS
   ion_dynamics     = 'bfgs'
/
&CELL
   cell_dynamics    = 'bfgs'
/

ATOMIC_SPECIES
O 15.999 O.wc-nl-rrkjus_psl.1.0.0.UPF
Mg 24.305 Mg.wc-spnl-rrkjus_psl.1.0.0.UPF
Si 28.085 Si.wc-nl-rrkjus_psl.1.0.0.UPF

K_POINTS automatic
9 9 10  0 0 0

CELL_PARAMETERS angstrom
2.75286103500000 0.13654097721000 4.82444786142000
-1.37643051700000 2.52058856621000 4.89596928909000
-1.37643051700000 -2.24750661179000 4.75292643375000

ATOMIC_POSITIONS angstrom
O 1.3292746161 -0.4959484535 3.4617853141 
O -0.1498473750 1.5468794519 3.5230701513 
O -1.1794272411 -0.7554917205 3.4539990161 
O -1.3292746161 0.4959484535 -3.4617853141 
O 0.1498473750 -1.5468794519 -3.5230701513 
O 1.1794272411 0.7554917205 -3.4539990161 
Mg 0.0000000000 0.1476210056 5.2159421979 
Mg 0.0000000000 -0.1476210056 -5.2159421979 
Si 0.0000000000 0.0646462513 2.2841675454 
Si 0.0000000000 -0.0646462513 -2.2841675454 

