
     Program PWSCF v.7.0 starts on  4Aug2025 at 10:14:24 

     This program is part of the open-source Quantum ESPRESSO suite
     for quantum simulation of materials; please cite
         "P. Giannozzi et al., J. Phys.:Condens. Matter 21 395502 (2009);
         "P. Giannozzi et al., J. Phys.:Condens. Matter 29 465901 (2017);
         "P. Giannozzi et al., J. Chem. Phys. 152 154105 (2020);
          URL http://www.quantum-espresso.org", 
     in publications or presentations arising from this work. More details at
     http://www.quantum-espresso.org/quote

     Parallel version (MPI & OpenMP), running on      16 processor cores
     Number of MPI processes:                16
     Threads/MPI process:                     1

     MPI processes distributed on     1 nodes
     K-points division:     npool     =       4
     R & G space division:  proc/nbgrp/npool/nimage =       4
     4587 MiB available memory on the printing compute node when the environment starts

     Waiting for input...
     Reading input from standard input
Warning: card &CELL ignored
Warning: card    CELL_DYNAMICS    = 'BFGS' ignored
Warning: card    PRESS            = 150 ignored
Warning: card    PRESS_CONV_THR   = 0.05 ignored
Warning: card / ignored

     Current dimensions of program PWSCF are:
     Max number of different atomic species (ntypx) = 10
     Max number of k-points (npk) =  40000
     Max angular momentum in pseudopotentials (lmaxx) =  4
     file O.pbe-nl-rrkjus_psl.1.0.0.UPF: wavefunction(s)  2S renormalized
     file Mg.pbe-spnl-rrkjus_psl.1.0.0.UPF: wavefunction(s)  2P renormalized
     Message from routine setup:
     using ibrav=0 with symmetry is DISCOURAGED, use correct ibrav instead

     Subspace diagonalization in iterative solution of the eigenvalue problem:
     one sub-group per band group will be used
     scalapack distributed-memory algorithm (size of sub-group:  2*  2 procs)


     Parallelization info
     --------------------
     sticks:   dense  smooth     PW     G-vecs:    dense   smooth      PW
     Min         911     488    142                35623    13874    2198
     Max         912     489    143                35625    13875    2200
     Sum        3647    1953    571               142497    55499    8797

     Using Slab Decomposition



     bravais-lattice index     =            0
     lattice parameter (alat)  =       9.4875  a.u.
     unit-cell volume          =     574.3932 (a.u.)^3
     number of atoms/cell      =           10
     number of atomic types    =            3
     number of electrons       =        64.00
     number of Kohn-Sham states=           32
     kinetic-energy cutoff     =      80.0000  Ry
     charge density cutoff     =     600.0000  Ry
     scf convergence threshold =      1.0E-06
     mixing beta               =       0.7000
     number of iterations used =            8  plain     mixing
     energy convergence thresh.=      1.0E-04
     force convergence thresh. =      1.0E-03
     Exchange-correlation= PBE
                           (   1   4   3   4   0   0   0)
     nstep                     =           50


     celldm(1)=   9.487483  celldm(2)=   0.000000  celldm(3)=   0.000000
     celldm(4)=   0.000000  celldm(5)=   0.000000  celldm(6)=   0.000000

     crystal axes: (cart. coord. in units of alat)
               a(1) = (   1.000000   0.000000   0.000000 )  
               a(2) = (   0.599165   0.851729   0.000000 )  
               a(3) = (   0.599165   0.319121   0.789687 )  

     reciprocal axes: (cart. coord. in units 2 pi/alat)
               b(1) = (  1.000000 -0.703469 -0.474459 )  
               b(2) = (  0.000000  1.174082 -0.474459 )  
               b(3) = (  0.000000  0.000000  1.266325 )  


     PseudoPot. # 1 for O  read from file:
     /home/tim/espresso/pseudo/O.pbe-nl-rrkjus_psl.1.0.0.UPF
     MD5 check sum: 233c8028909f741e7889d61785a595bc
     Pseudo is Ultrasoft + core correction, Zval =  6.0
     Generated using 'atomic' code by A. Dal Corso  v.7.0
     Using radial grid of 1095 points,  4 beta functions with: 
                l(1) =   0
                l(2) =   0
                l(3) =   1
                l(4) =   1
     Q(r) pseudized with 0 coefficients 


     PseudoPot. # 2 for Mg read from file:
     /home/tim/espresso/pseudo/Mg.pbe-spnl-rrkjus_psl.1.0.0.UPF
     MD5 check sum: 37caad9c05fe2a5f639d8b65b442f5f9
     Pseudo is Ultrasoft + core correction, Zval = 10.0
     Generated using 'atomic' code by A. Dal Corso  v.7.0
     Using radial grid of 1129 points,  4 beta functions with: 
                l(1) =   0
                l(2) =   0
                l(3) =   1
                l(4) =   1
     Q(r) pseudized with 0 coefficients 


     PseudoPot. # 3 for Si read from file:
     /home/tim/espresso/pseudo/Si.pbe-nl-rrkjus_psl.1.0.0.UPF
     MD5 check sum: ceeb670d53204f1f4f48a0a0dd9ca3d4
     Pseudo is Ultrasoft + core correction, Zval =  4.0
     Generated using 'atomic' code by A. Dal Corso  v.7.0
     Using radial grid of 1141 points,  4 beta functions with: 
                l(1) =   0
                l(2) =   0
                l(3) =   1
                l(4) =   1
     Q(r) pseudized with 0 coefficients 


     atomic species   valence    mass     pseudopotential
        O              6.00    15.99900     O ( 1.00)
        Mg            10.00    24.30500     Mg( 1.00)
        Si             4.00    28.08500     Si( 1.00)

      2 Sym. Ops., with inversion, found



   Cartesian axes

     site n.     atom                  positions (alat units)
         1           O   tau(   1) = (   1.2562593   0.8782631   0.1608066  )
         2           O   tau(   2) = (   1.1125604   0.7834991   0.7540376  )
         3           O   tau(   3) = (   1.4136769   0.3528286   0.4439085  )
         4           O   tau(   4) = (   0.9420708   0.2925867   0.6288800  )
         5           O   tau(   5) = (   1.0857697   0.3873507   0.0356490  )
         6           O   tau(   6) = (   0.7846531   0.8180213   0.3457781  )
         7           Mg  tau(   7) = (   0.7928322   0.4222694   0.2848021  )
         8           Mg  tau(   8) = (   1.4054979   0.7485805   0.5048845  )
         9           Si  tau(   9) = (   0.3472196   0.1849322   0.1247286  )
        10           Si  tau(  10) = (   1.8511105   0.9859176   0.6649580  )

     number of k points=   504

     Number of k-points >= 100: set verbosity='high' to print them.

     Dense  grid:   142497 G-vectors     FFT dimensions: (  75,  80,  80)

     Smooth grid:    55499 G-vectors     FFT dimensions: (  60,  60,  60)

     Estimated max dynamical RAM per process >     144.75 MB

     Estimated total dynamical RAM >       2.16 GB

     Check: negative core charge=   -0.000002

     Initial potential from superposition of free atoms

     starting charge      63.9970, renormalised to      64.0000
     Starting wfcs are   42 randomized atomic wfcs

     total cpu time spent up to now is        9.2 secs

     per-process dynamical memory:   144.9 Mb

     Self-consistent Calculation

     iteration #  1     ecut=    80.00 Ry     beta= 0.70
     Davidson diagonalization with overlap
     ethr =  1.00E-02,  avg # of iterations =  2.0

     total cpu time spent up to now is       25.0 secs

     total energy              =    -468.51125627 Ry
     estimated scf accuracy    <       2.09542475 Ry

     iteration #  2     ecut=    80.00 Ry     beta= 0.70
     Davidson diagonalization with overlap
     ethr =  3.27E-03,  avg # of iterations =  3.0

     total cpu time spent up to now is       43.7 secs

     total energy              =    -469.22829599 Ry
     estimated scf accuracy    <       1.22855979 Ry

     iteration #  3     ecut=    80.00 Ry     beta= 0.70
     Davidson diagonalization with overlap
     ethr =  1.92E-03,  avg # of iterations =  2.0

     total cpu time spent up to now is       59.8 secs

     total energy              =    -469.40061148 Ry
     estimated scf accuracy    <       0.04299307 Ry

     iteration #  4     ecut=    80.00 Ry     beta= 0.70
     Davidson diagonalization with overlap
     ethr =  6.72E-05,  avg # of iterations =  5.2

     total cpu time spent up to now is       84.1 secs

     total energy              =    -469.44470934 Ry
     estimated scf accuracy    <       0.05335838 Ry

     iteration #  5     ecut=    80.00 Ry     beta= 0.70
     Davidson diagonalization with overlap
     ethr =  6.72E-05,  avg # of iterations =  2.0

     total cpu time spent up to now is       97.5 secs

     total energy              =    -469.43952183 Ry
     estimated scf accuracy    <       0.01821330 Ry

     iteration #  6     ecut=    80.00 Ry     beta= 0.70
     Davidson diagonalization with overlap
     ethr =  2.85E-05,  avg # of iterations =  2.0

     total cpu time spent up to now is      113.2 secs

     total energy              =    -469.44225229 Ry
     estimated scf accuracy    <       0.00089504 Ry

     iteration #  7     ecut=    80.00 Ry     beta= 0.70
     Davidson diagonalization with overlap
     ethr =  1.40E-06,  avg # of iterations =  5.5

     total cpu time spent up to now is      137.5 secs

     total energy              =    -469.44314752 Ry
     estimated scf accuracy    <       0.00011956 Ry

     iteration #  8     ecut=    80.00 Ry     beta= 0.70
     Davidson diagonalization with overlap
     ethr =  1.87E-07,  avg # of iterations =  3.0

     total cpu time spent up to now is      156.5 secs

     total energy              =    -469.44292001 Ry
     estimated scf accuracy    <       0.00072584 Ry

     iteration #  9     ecut=    80.00 Ry     beta= 0.70
     Davidson diagonalization with overlap
     ethr =  1.87E-07,  avg # of iterations =  3.0

     total cpu time spent up to now is      175.7 secs

     total energy              =    -469.44296062 Ry
     estimated scf accuracy    <       0.00006881 Ry

     iteration # 10     ecut=    80.00 Ry     beta= 0.70
     Davidson diagonalization with overlap
     ethr =  1.08E-07,  avg # of iterations =  2.0

     total cpu time spent up to now is      191.4 secs

     End of self-consistent calculation

     Number of k-points >= 100: set verbosity='high' to print the bands.

     highest occupied level (ev):     8.4678

!    total energy              =    -469.44297631 Ry
     estimated scf accuracy    <       0.00000057 Ry

     The total energy is the sum of the following terms:
     one-electron contribution =    -210.85087114 Ry
     hartree contribution      =     140.27734975 Ry
     xc contribution           =     -91.63847029 Ry
     ewald contribution        =    -307.23098463 Ry

     convergence has been achieved in  10 iterations

     Forces acting on atoms (cartesian axes, Ry/au):

     atom    1 type  1   force =     0.03517613   -0.00488934    0.00726783
     atom    2 type  1   force =     0.05538189   -0.00013058    0.00498974
     atom    3 type  1   force =     0.01653696    0.01615792   -0.00174178
     atom    4 type  1   force =    -0.03517613    0.00488934   -0.00726783
     atom    5 type  1   force =    -0.05538189    0.00013058   -0.00498974
     atom    6 type  1   force =    -0.01653696   -0.01615792    0.00174178
     atom    7 type  2   force =     0.00021175    0.00466069    0.00806882
     atom    8 type  2   force =    -0.00021175   -0.00466069   -0.00806882
     atom    9 type  3   force =    -0.00677108   -0.01304078    0.00070876
     atom   10 type  3   force =     0.00677108    0.01304078   -0.00070876

     Total force =     0.102440     Total SCF correction =     0.000437


     Computing stress (Cartesian axis) and pressure

          total   stress  (Ry/bohr**3)                   (kbar)     P=      151.48
   0.00204400   0.00004045  -0.00004415          300.68        5.95       -6.49
   0.00004045   0.00049064   0.00006645            5.95       72.18        9.78
  -0.00004415   0.00006645   0.00055448           -6.49        9.78       81.57


     BFGS Geometry Optimization
     Energy error            =      0.0E+00 Ry
     Gradient error          =      5.5E-02 Ry/Bohr

     number of scf cycles    =   1
     number of bfgs steps    =   0

     energy             new  =    -469.4429763068 Ry

     new trust radius        =       0.0556063723 bohr
     new conv_thr            =       0.0000010000 Ry


ATOMIC_POSITIONS (angstrom)
O             6.3257391405        4.4067848994        0.8111850257
O             5.6149824519        3.9335348597        3.7883309890
O             7.1062003019        1.7799473282        2.2277471677
O             4.7111080213        1.4715364560        3.1534834012
O             5.4218647100        1.9447864958        0.1763374379
O             3.9306468599        4.0983740272        1.7369212592
Mg            3.9805734014        2.1224948680        1.4341355586
Mg            7.0562737605        3.7558264874        2.5305328683
Si            1.7396535232        0.9215621904        0.6265824457
Si            9.2971936386        4.9567591650        3.3380859812



     Writing config-only to output data dir ./Aknew_.save/
     NEW-OLD atomic charge density approx. for the potential

     Check: negative core charge=   -0.000002

     total cpu time spent up to now is      204.2 secs

     per-process dynamical memory:   149.1 Mb

     Self-consistent Calculation

     iteration #  1     ecut=    80.00 Ry     beta= 0.70
     Davidson diagonalization with overlap
     ethr =  1.00E-06,  avg # of iterations =  7.2

     total cpu time spent up to now is      239.5 secs

     total energy              =    -469.44854895 Ry
     estimated scf accuracy    <       0.00272678 Ry

     iteration #  2     ecut=    80.00 Ry     beta= 0.70
     Davidson diagonalization with overlap
     ethr =  4.26E-06,  avg # of iterations =  2.0

     total cpu time spent up to now is      255.0 secs

     total energy              =    -469.44934933 Ry
     estimated scf accuracy    <       0.00041961 Ry

     iteration #  3     ecut=    80.00 Ry     beta= 0.70
     Davidson diagonalization with overlap
     ethr =  6.56E-07,  avg # of iterations =  2.0

     total cpu time spent up to now is      270.2 secs

     total energy              =    -469.44943527 Ry
     estimated scf accuracy    <       0.00000531 Ry

     iteration #  4     ecut=    80.00 Ry     beta= 0.70
     Davidson diagonalization with overlap
     ethr =  8.30E-09,  avg # of iterations =  7.0

     total cpu time spent up to now is      299.2 secs

     total energy              =    -469.44944371 Ry
     estimated scf accuracy    <       0.00000188 Ry

     iteration #  5     ecut=    80.00 Ry     beta= 0.70
     Davidson diagonalization with overlap
     ethr =  2.94E-09,  avg # of iterations =  2.1

     total cpu time spent up to now is      315.2 secs

     End of self-consistent calculation

     Number of k-points >= 100: set verbosity='high' to print the bands.

     highest occupied level (ev):     8.4300

!    total energy              =    -469.44944402 Ry
     estimated scf accuracy    <       0.00000020 Ry

     The total energy is the sum of the following terms:
     one-electron contribution =    -211.23288742 Ry
     hartree contribution      =     140.52209978 Ry
     xc contribution           =     -91.58613082 Ry
     ewald contribution        =    -307.15252556 Ry

     convergence has been achieved in   5 iterations

     Forces acting on atoms (cartesian axes, Ry/au):

     atom    1 type  1   force =     0.01342844   -0.00512034   -0.00330947
     atom    2 type  1   force =     0.00927136    0.00062635    0.00650417
     atom    3 type  1   force =     0.00365490    0.00146831   -0.00411815
     atom    4 type  1   force =    -0.01342844    0.00512034    0.00330947
     atom    5 type  1   force =    -0.00927136   -0.00062635   -0.00650417
     atom    6 type  1   force =    -0.00365490   -0.00146831    0.00411815
     atom    7 type  2   force =    -0.00376303    0.00396204    0.00685600
     atom    8 type  2   force =     0.00376303   -0.00396204   -0.00685600
     atom    9 type  3   force =    -0.00838039   -0.00209500   -0.00394433
     atom   10 type  3   force =     0.00838039    0.00209500    0.00394433

     Total force =     0.033035     Total SCF correction =     0.001761


     Computing stress (Cartesian axis) and pressure

          total   stress  (Ry/bohr**3)                   (kbar)     P=      133.23
   0.00174830   0.00002137  -0.00010521          257.18        3.14      -15.48
   0.00002137   0.00042913   0.00008049            3.14       63.13       11.84
  -0.00010521   0.00008049   0.00053955          -15.48       11.84       79.37

     Energy error            =      6.5E-03 Ry
     Gradient error          =      1.3E-02 Ry/Bohr

     number of scf cycles    =   2
     number of bfgs steps    =   1

     energy             old  =    -469.4429763068 Ry
     energy             new  =    -469.4494440184 Ry

     CASE: energy            _new < energy            _old

     new trust radius        =       0.0220296355 bohr
     new conv_thr            =       0.0000001343 Ry


ATOMIC_POSITIONS (angstrom)
O             6.3365850873        4.4030086292        0.8091839217
O             5.6237817650        3.9339660718        3.7930763605
O             7.1094458601        1.7816523147        2.2248023715
O             4.7002620745        1.4753127262        3.1554845052
O             5.4130653969        1.9443552837        0.1715920664
O             3.9274013017        4.0966690407        1.7398660554
Mg            3.9779585689        2.1254538753        1.4392560543
Mg            7.0588885930        3.7528674801        2.5254123726
Si            1.7335248654        0.9195516605        0.6238621606
Si            9.3033222964        4.9587696949        3.3408062663



     Writing config-only to output data dir ./Aknew_.save/
     NEW-OLD atomic charge density approx. for the potential

     Check: negative core charge=   -0.000002

     total cpu time spent up to now is      327.8 secs

     per-process dynamical memory:   149.1 Mb

     Self-consistent Calculation

     iteration #  1     ecut=    80.00 Ry     beta= 0.70
     Davidson diagonalization with overlap
     ethr =  1.00E-06,  avg # of iterations =  8.0

     total cpu time spent up to now is      359.5 secs

     total energy              =    -469.45035971 Ry
     estimated scf accuracy    <       0.00040946 Ry

     iteration #  2     ecut=    80.00 Ry     beta= 0.70
     Davidson diagonalization with overlap
     ethr =  6.40E-07,  avg # of iterations =  2.0

     total cpu time spent up to now is      374.9 secs

     total energy              =    -469.45046141 Ry
     estimated scf accuracy    <       0.00004376 Ry

     iteration #  3     ecut=    80.00 Ry     beta= 0.70
     Davidson diagonalization with overlap
     ethr =  6.84E-08,  avg # of iterations =  2.0

     total cpu time spent up to now is      390.1 secs

     total energy              =    -469.45047085 Ry
     estimated scf accuracy    <       0.00000095 Ry

     iteration #  4     ecut=    80.00 Ry     beta= 0.70
     Davidson diagonalization with overlap
     ethr =  1.48E-09,  avg # of iterations =  5.4

     total cpu time spent up to now is      411.8 secs

     total energy              =    -469.45047132 Ry
     estimated scf accuracy    <       0.00000015 Ry

     iteration #  5     ecut=    80.00 Ry     beta= 0.70
     Davidson diagonalization with overlap
     ethr =  2.29E-10,  avg # of iterations =  3.1

     total cpu time spent up to now is      428.6 secs

     End of self-consistent calculation

     Number of k-points >= 100: set verbosity='high' to print the bands.

     highest occupied level (ev):     8.4233

!    total energy              =    -469.45047135 Ry
     estimated scf accuracy    <       0.00000004 Ry

     The total energy is the sum of the following terms:
     one-electron contribution =    -211.28675528 Ry
     hartree contribution      =     140.56773886 Ry
     xc contribution           =     -91.56827285 Ry
     ewald contribution        =    -307.16318207 Ry

     convergence has been achieved in   5 iterations

     Forces acting on atoms (cartesian axes, Ry/au):

     atom    1 type  1   force =     0.00235638   -0.00221035   -0.00518479
     atom    2 type  1   force =    -0.00018452   -0.00027252    0.00369881
     atom    3 type  1   force =    -0.00163399   -0.00387991   -0.00366114
     atom    4 type  1   force =    -0.00235638    0.00221035    0.00518479
     atom    5 type  1   force =     0.00018452    0.00027252   -0.00369881
     atom    6 type  1   force =     0.00163399    0.00387991    0.00366114
     atom    7 type  2   force =    -0.00261518    0.00201032    0.00267064
     atom    8 type  2   force =     0.00261518   -0.00201032   -0.00267064
     atom    9 type  3   force =    -0.00351005   -0.00096743   -0.00267914
     atom   10 type  3   force =     0.00351005    0.00096743    0.00267914

     Total force =     0.015536     Total SCF correction =     0.000341


     Computing stress (Cartesian axis) and pressure

          total   stress  (Ry/bohr**3)                   (kbar)     P=      126.95
   0.00162866   0.00001267  -0.00011249          239.58        1.86      -16.55
   0.00001267   0.00042612   0.00008580            1.86       62.69       12.62
  -0.00011249   0.00008580   0.00053425          -16.55       12.62       78.59

     Energy error            =      1.0E-03 Ry
     Gradient error          =      5.2E-03 Ry/Bohr

     number of scf cycles    =   3
     number of bfgs steps    =   2

     energy             old  =    -469.4494440184 Ry
     energy             new  =    -469.4504713461 Ry

     CASE: energy            _new < energy            _old

     new trust radius        =       0.0119566098 bohr
     new conv_thr            =       0.0000000518 Ry


ATOMIC_POSITIONS (angstrom)
O             6.3410110496        4.4006671504        0.8053159304
O             5.6266019065        3.9338349797        3.7966524946
O             7.1092464677        1.7795710377        2.2216336507
O             4.6958361122        1.4776542050        3.1593524965
O             5.4102452554        1.9444863758        0.1680159323
O             3.9276006941        4.0987503177        1.7430347762
Mg            3.9756531066        2.1275127665        1.4422349429
Mg            7.0611940553        3.7508085889        2.5224334840
Si            1.7298128709        0.9181669357        0.6215072621
Si            9.3070342909        4.9601544197        3.3431611648



     Writing config-only to output data dir ./Aknew_.save/
     NEW-OLD atomic charge density approx. for the potential

     Check: negative core charge=   -0.000002

     total cpu time spent up to now is      441.8 secs

     per-process dynamical memory:   149.1 Mb

     Self-consistent Calculation

     iteration #  1     ecut=    80.00 Ry     beta= 0.70
     Davidson diagonalization with overlap
     ethr =  1.00E-06,  avg # of iterations =  7.0

     total cpu time spent up to now is      470.5 secs

     total energy              =    -469.45072097 Ry
     estimated scf accuracy    <       0.00008842 Ry

     iteration #  2     ecut=    80.00 Ry     beta= 0.70
     Davidson diagonalization with overlap
     ethr =  1.38E-07,  avg # of iterations =  2.0

     total cpu time spent up to now is      485.5 secs

     total energy              =    -469.45073676 Ry
     estimated scf accuracy    <       0.00000336 Ry

     iteration #  3     ecut=    80.00 Ry     beta= 0.70
     Davidson diagonalization with overlap
     ethr =  5.25E-09,  avg # of iterations =  3.9

     total cpu time spent up to now is      504.5 secs

     total energy              =    -469.45073777 Ry
     estimated scf accuracy    <       0.00000068 Ry

     iteration #  4     ecut=    80.00 Ry     beta= 0.70
     Davidson diagonalization with overlap
     ethr =  1.07E-09,  avg # of iterations =  3.1

     total cpu time spent up to now is      523.6 secs

     total energy              =    -469.45073795 Ry
     estimated scf accuracy    <       0.00000015 Ry

     iteration #  5     ecut=    80.00 Ry     beta= 0.70
     Davidson diagonalization with overlap
     ethr =  2.27E-10,  avg # of iterations =  3.2

     total cpu time spent up to now is      540.8 secs

     End of self-consistent calculation

     Number of k-points >= 100: set verbosity='high' to print the bands.

     highest occupied level (ev):     8.4236

!    total energy              =    -469.45073798 Ry
     estimated scf accuracy    <          8.0E-09 Ry

     The total energy is the sum of the following terms:
     one-electron contribution =    -211.23985803 Ry
     hartree contribution      =     140.54841720 Ry
     xc contribution           =     -91.56683378 Ry
     ewald contribution        =    -307.19246337 Ry

     convergence has been achieved in   5 iterations

     Forces acting on atoms (cartesian axes, Ry/au):

     atom    1 type  1   force =    -0.00042596   -0.00021153   -0.00265094
     atom    2 type  1   force =    -0.00155472   -0.00038925    0.00124576
     atom    3 type  1   force =    -0.00200964   -0.00298141   -0.00248550
     atom    4 type  1   force =     0.00042596    0.00021153    0.00265094
     atom    5 type  1   force =     0.00155472    0.00038925   -0.00124576
     atom    6 type  1   force =     0.00200964    0.00298141    0.00248550
     atom    7 type  2   force =    -0.00091780    0.00102518    0.00055360
     atom    8 type  2   force =     0.00091780   -0.00102518   -0.00055360
     atom    9 type  3   force =    -0.00076058    0.00039596   -0.00093892
     atom   10 type  3   force =     0.00076058   -0.00039596    0.00093892

     Total force =     0.008282     Total SCF correction =     0.000263


     Computing stress (Cartesian axis) and pressure

          total   stress  (Ry/bohr**3)                   (kbar)     P=      126.61
   0.00159194   0.00001647  -0.00010607          234.18        2.42      -15.60
   0.00001647   0.00044694   0.00009516            2.42       65.75       14.00
  -0.00010607   0.00009516   0.00054322          -15.60       14.00       79.91

     Energy error            =      2.7E-04 Ry
     Gradient error          =      3.0E-03 Ry/Bohr

     number of scf cycles    =   4
     number of bfgs steps    =   3

     energy             old  =    -469.4504713461 Ry
     energy             new  =    -469.4507379771 Ry

     CASE: energy            _new < energy            _old

     new trust radius        =       0.0069070007 bohr
     new conv_thr            =       0.0000000267 Ry


ATOMIC_POSITIONS (angstrom)
O             6.3423366486        4.3998999512        0.8026886205
O             5.6269480591        3.9335382119        3.7984507919
O             7.1080418187        1.7772559914        2.2190746262
O             4.6945105132        1.4784214042        3.1619798064
O             5.4098991028        1.9447831436        0.1662176350
O             3.9288053431        4.1010653640        1.7455938007
Mg            3.9744704616        2.1288200006        1.4434705043
Mg            7.0623767003        3.7495013548        2.5211979226
Si            1.7282713294        0.9180095063        0.6203011389
Si            9.3085758324        4.9603118491        3.3443672880



     Writing config-only to output data dir ./Aknew_.save/
     NEW-OLD atomic charge density approx. for the potential

     Check: negative core charge=   -0.000002

     total cpu time spent up to now is      553.1 secs

     per-process dynamical memory:   149.1 Mb

     Self-consistent Calculation

     iteration #  1     ecut=    80.00 Ry     beta= 0.70
     Davidson diagonalization with overlap
     ethr =  1.00E-06,  avg # of iterations =  5.0

     Threshold (ethr) on eigenvalues was too large:
     Diagonalizing with lowered threshold

     Davidson diagonalization with overlap
     ethr =  4.52E-08,  avg # of iterations =  2.7

     total cpu time spent up to now is      594.9 secs

     total energy              =    -469.45079671 Ry
     estimated scf accuracy    <       0.00003305 Ry

     iteration #  2     ecut=    80.00 Ry     beta= 0.70
     Davidson diagonalization with overlap
     ethr =  5.16E-08,  avg # of iterations =  2.0

     total cpu time spent up to now is      610.1 secs

     total energy              =    -469.45080302 Ry
     estimated scf accuracy    <       0.00000215 Ry

     iteration #  3     ecut=    80.00 Ry     beta= 0.70
     Davidson diagonalization with overlap
     ethr =  3.35E-09,  avg # of iterations =  4.3

     total cpu time spent up to now is      629.2 secs

     total energy              =    -469.45080373 Ry
     estimated scf accuracy    <       0.00000029 Ry

     iteration #  4     ecut=    80.00 Ry     beta= 0.70
     Davidson diagonalization with overlap
     ethr =  4.53E-10,  avg # of iterations =  2.8

     total cpu time spent up to now is      645.3 secs

     total energy              =    -469.45080380 Ry
     estimated scf accuracy    <       0.00000003 Ry

     iteration #  5     ecut=    80.00 Ry     beta= 0.70
     Davidson diagonalization with overlap
     ethr =  4.26E-11,  avg # of iterations =  3.9

     total cpu time spent up to now is      664.2 secs

     End of self-consistent calculation

     Number of k-points >= 100: set verbosity='high' to print the bands.

     highest occupied level (ev):     8.4252

!    total energy              =    -469.45080380 Ry
     estimated scf accuracy    <          2.1E-09 Ry

     The total energy is the sum of the following terms:
     one-electron contribution =    -211.19352901 Ry
     hartree contribution      =     140.52399710 Ry
     xc contribution           =     -91.56965813 Ry
     ewald contribution        =    -307.21161376 Ry

     convergence has been achieved in   5 iterations

     Forces acting on atoms (cartesian axes, Ry/au):

     atom    1 type  1   force =    -0.00031954    0.00052403   -0.00050963
     atom    2 type  1   force =    -0.00058986   -0.00019979   -0.00007099
     atom    3 type  1   force =    -0.00096021   -0.00068696   -0.00120894
     atom    4 type  1   force =     0.00031954   -0.00052403    0.00050963
     atom    5 type  1   force =     0.00058986    0.00019979    0.00007099
     atom    6 type  1   force =     0.00096021    0.00068696    0.00120894
     atom    7 type  2   force =     0.00018616    0.00056758   -0.00008318
     atom    8 type  2   force =    -0.00018616   -0.00056758    0.00008318
     atom    9 type  3   force =     0.00056825    0.00058349    0.00014112
     atom   10 type  3   force =    -0.00056825   -0.00058349   -0.00014112

     Total force =     0.003141     Total SCF correction =     0.000155


     Computing stress (Cartesian axis) and pressure

          total   stress  (Ry/bohr**3)                   (kbar)     P=      127.61
   0.00158738   0.00002245  -0.00009928          233.51        3.30      -14.60
   0.00002245   0.00046481   0.00010136            3.30       68.38       14.91
  -0.00009928   0.00010136   0.00055030          -14.60       14.91       80.95

     Energy error            =      6.6E-05 Ry
     Gradient error          =      1.2E-03 Ry/Bohr

     number of scf cycles    =   5
     number of bfgs steps    =   4

     energy             old  =    -469.4507379771 Ry
     energy             new  =    -469.4508038043 Ry

     CASE: energy            _new < energy            _old

     new trust radius        =       0.0026975183 bohr
     new conv_thr            =       0.0000000100 Ry


ATOMIC_POSITIONS (angstrom)
O             6.3423659484        4.4001225207        0.8020762779
O             5.6267022635        3.9333834713        3.7986295811
O             7.1073377879        1.7766010299        2.2180196271
O             4.6944812134        1.4781988347        3.1625921490
O             5.4101448984        1.9449378842        0.1660388458
O             3.9295093739        4.1017203255        1.7466487998
Mg            3.9744474742        2.1293404695        1.4435879871
Mg            7.0623996877        3.7489808859        2.5210804398
Si            1.7284281928        0.9183362108        0.6202462767
Si            9.3084189690        4.9599851446        3.3444221502



     Writing config-only to output data dir ./Aknew_.save/
     NEW-OLD atomic charge density approx. for the potential

     Check: negative core charge=   -0.000002

     total cpu time spent up to now is      677.3 secs

     per-process dynamical memory:   149.1 Mb

     Self-consistent Calculation

     iteration #  1     ecut=    80.00 Ry     beta= 0.70
     Davidson diagonalization with overlap
     ethr =  1.00E-06,  avg # of iterations =  2.0

     Threshold (ethr) on eigenvalues was too large:
     Diagonalizing with lowered threshold

     Davidson diagonalization with overlap
     ethr =  3.90E-09,  avg # of iterations =  6.0

     total cpu time spent up to now is      718.1 secs

     total energy              =    -469.45081166 Ry
     estimated scf accuracy    <       0.00000380 Ry

     iteration #  2     ecut=    80.00 Ry     beta= 0.70
     Davidson diagonalization with overlap
     ethr =  5.94E-09,  avg # of iterations =  2.0

     total cpu time spent up to now is      733.3 secs

     total energy              =    -469.45081262 Ry
     estimated scf accuracy    <       0.00000044 Ry

     iteration #  3     ecut=    80.00 Ry     beta= 0.70
     Davidson diagonalization with overlap
     ethr =  6.82E-10,  avg # of iterations =  2.0

     total cpu time spent up to now is      748.6 secs

     total energy              =    -469.45081271 Ry
     estimated scf accuracy    <       0.00000001 Ry

     iteration #  4     ecut=    80.00 Ry     beta= 0.70
     Davidson diagonalization with overlap
     ethr =  2.00E-11,  avg # of iterations =  5.5

     total cpu time spent up to now is      771.1 secs

     End of self-consistent calculation

     Number of k-points >= 100: set verbosity='high' to print the bands.

     highest occupied level (ev):     8.4259

!    total energy              =    -469.45081272 Ry
     estimated scf accuracy    <          2.6E-09 Ry

     The total energy is the sum of the following terms:
     one-electron contribution =    -211.18360111 Ry
     hartree contribution      =     140.51788629 Ry
     xc contribution           =     -91.57115058 Ry
     ewald contribution        =    -307.21394732 Ry

     convergence has been achieved in   4 iterations

     Forces acting on atoms (cartesian axes, Ry/au):

     atom    1 type  1   force =     0.00015670    0.00039064   -0.00008002
     atom    2 type  1   force =    -0.00001240    0.00000038   -0.00026550
     atom    3 type  1   force =    -0.00038761    0.00018414   -0.00056690
     atom    4 type  1   force =    -0.00015670   -0.00039064    0.00008002
     atom    5 type  1   force =     0.00001240   -0.00000038    0.00026550
     atom    6 type  1   force =     0.00038761   -0.00018414    0.00056690
     atom    7 type  2   force =     0.00036254    0.00041655   -0.00006215
     atom    8 type  2   force =    -0.00036254   -0.00041655    0.00006215
     atom    9 type  3   force =     0.00057584    0.00030058    0.00024680
     atom   10 type  3   force =    -0.00057584   -0.00030058   -0.00024680

     Total force =     0.001761     Total SCF correction =     0.000140


     Computing stress (Cartesian axis) and pressure

          total   stress  (Ry/bohr**3)                   (kbar)     P=      128.08
   0.00159054   0.00002475  -0.00009721          233.98        3.64      -14.30
   0.00002475   0.00046973   0.00010282            3.64       69.10       15.13
  -0.00009721   0.00010282   0.00055175          -14.30       15.13       81.16

     Energy error            =      8.9E-06 Ry
     Gradient error          =      5.8E-04 Ry/Bohr

     bfgs converged in   6 scf cycles and   5 bfgs steps
     (criteria: energy <  1.0E-04 Ry, force <  1.0E-03 Ry/Bohr)

     End of BFGS Geometry Optimization

     Final energy             =    -469.4508127197 Ry

     File ./Aknew_.bfgs deleted, as requested
Begin final coordinates

ATOMIC_POSITIONS (angstrom)
O             6.3423659484        4.4001225207        0.8020762779
O             5.6267022635        3.9333834713        3.7986295811
O             7.1073377879        1.7766010299        2.2180196271
O             4.6944812134        1.4781988347        3.1625921490
O             5.4101448984        1.9449378842        0.1660388458
O             3.9295093739        4.1017203255        1.7466487998
Mg            3.9744474742        2.1293404695        1.4435879871
Mg            7.0623996877        3.7489808859        2.5210804398
Si            1.7284281928        0.9183362108        0.6202462767
Si            9.3084189690        4.9599851446        3.3444221502
End final coordinates



     Writing all to output data dir ./Aknew_.save/

     init_run     :      8.84s CPU      9.00s WALL (       1 calls)
     electrons    :    691.80s CPU    698.00s WALL (       6 calls)
     update_pot   :     12.46s CPU     12.54s WALL (       5 calls)
     forces       :     20.20s CPU     20.36s WALL (       6 calls)
     stress       :     39.89s CPU     40.03s WALL (       6 calls)

     Called by init_run:
     wfcinit      :      5.42s CPU      5.54s WALL (       1 calls)
     potinit      :      1.28s CPU      1.30s WALL (       1 calls)
     hinit0       :      2.05s CPU      2.05s WALL (       1 calls)

     Called by electrons:
     c_bands      :    618.19s CPU    623.12s WALL (      36 calls)
     sum_band     :     67.95s CPU     68.58s WALL (      36 calls)
     v_of_rho     :      4.25s CPU      4.87s WALL (      40 calls)
     newd         :      1.52s CPU      1.63s WALL (      40 calls)
     mix_rho      :      0.18s CPU      0.18s WALL (      36 calls)

     Called by c_bands:
     init_us_2    :     12.77s CPU     12.82s WALL (   10710 calls)
     init_us_2:cp :     12.73s CPU     12.79s WALL (   10710 calls)
     cegterg      :    563.95s CPU    568.76s WALL (    4536 calls)

     Called by *egterg:
     cdiaghg      :     26.99s CPU     27.15s WALL (   19788 calls)
     h_psi        :    401.37s CPU    405.66s WALL (   20796 calls)
     s_psi        :     20.07s CPU     20.14s WALL (   20796 calls)
     g_psi        :      2.46s CPU      2.47s WALL (   16134 calls)

     Called by h_psi:
     h_psi:calbec :     35.57s CPU     35.77s WALL (   20796 calls)
     vloc_psi     :    337.88s CPU    341.92s WALL (   20796 calls)
     add_vuspsi   :     22.97s CPU     23.02s WALL (   20796 calls)

     General routines
     calbec       :     50.51s CPU     50.77s WALL (   29112 calls)
     fft          :      3.27s CPU      3.43s WALL (     665 calls)
     ffts         :      0.27s CPU      0.27s WALL (      76 calls)
     fftw         :    339.52s CPU    343.40s WALL ( 1092182 calls)
     interpolate  :      0.47s CPU      0.47s WALL (      40 calls)

     Parallel routines

     PWSCF        :  12m54.50s CPU  13m 1.64s WALL


   This run was terminated on:  10:27:26   4Aug2025            

=------------------------------------------------------------------------------=
   JOB DONE.
=------------------------------------------------------------------------------=
