
     Program PWSCF v.7.0 starts on  4Aug2025 at 12:23:37 

     This program is part of the open-source Quantum ESPRESSO suite
     for quantum simulation of materials; please cite
         "P. Giannozzi et al., J. Phys.:Condens. Matter 21 395502 (2009);
         "P. Giannozzi et al., J. Phys.:Condens. Matter 29 465901 (2017);
         "P. Giannozzi et al., J. Chem. Phys. 152 154105 (2020);
          URL http://www.quantum-espresso.org", 
     in publications or presentations arising from this work. More details at
     http://www.quantum-espresso.org/quote

     Parallel version (MPI & OpenMP), running on      16 processor cores
     Number of MPI processes:                16
     Threads/MPI process:                     1

     MPI processes distributed on     1 nodes
     K-points division:     npool     =       4
     R & G space division:  proc/nbgrp/npool/nimage =       4
     4423 MiB available memory on the printing compute node when the environment starts

     Waiting for input...
     Reading input from standard input
Warning: card &CELL ignored
Warning: card    CELL_DYNAMICS    = 'BFGS' ignored
Warning: card    PRESS            = 150 ignored
Warning: card    PRESS_CONV_THR   = 0.05 ignored
Warning: card / ignored

     Current dimensions of program PWSCF are:
     Max number of different atomic species (ntypx) = 10
     Max number of k-points (npk) =  40000
     Max angular momentum in pseudopotentials (lmaxx) =  4
     file O.pbe-nl-rrkjus_psl.1.0.0.UPF: wavefunction(s)  2S renormalized
     file Mg.pbe-spnl-rrkjus_psl.1.0.0.UPF: wavefunction(s)  2P renormalized
     Message from routine setup:
     using ibrav=0 with symmetry is DISCOURAGED, use correct ibrav instead

     Subspace diagonalization in iterative solution of the eigenvalue problem:
     one sub-group per band group will be used
     scalapack distributed-memory algorithm (size of sub-group:  2*  2 procs)


     Parallelization info
     --------------------
     sticks:   dense  smooth     PW     G-vecs:    dense   smooth      PW
     Min         974     517    152                35428    13800    2213
     Max         975     518    153                35429    13801    2215
     Sum        3899    2071    611               141715    55203    8857

     Using Slab Decomposition



     bravais-lattice index     =            0
     lattice parameter (alat)  =      10.0725  a.u.
     unit-cell volume          =     570.9146 (a.u.)^3
     number of atoms/cell      =           10
     number of atomic types    =            3
     number of electrons       =        64.00
     number of Kohn-Sham states=           32
     kinetic-energy cutoff     =      80.0000  Ry
     charge density cutoff     =     600.0000  Ry
     scf convergence threshold =      1.0E-06
     mixing beta               =       0.7000
     number of iterations used =            8  plain     mixing
     energy convergence thresh.=      1.0E-04
     force convergence thresh. =      1.0E-03
     Exchange-correlation= PBE
                           (   1   4   3   4   0   0   0)
     nstep                     =           50


     celldm(1)=  10.072549  celldm(2)=   0.000000  celldm(3)=   0.000000
     celldm(4)=   0.000000  celldm(5)=   0.000000  celldm(6)=   0.000000

     crystal axes: (cart. coord. in units of alat)
               a(1) = (   1.000000   0.000000   0.000000 )  
               a(2) = (   0.598680   0.800988  -0.024030 )  
               a(3) = (   0.598680   0.277676   0.689142 )  

     reciprocal axes: (cart. coord. in units 2 pi/alat)
               b(1) = (  1.000000 -0.764251 -0.560793 )  
               b(2) = (  0.000000  1.233547 -0.497033 )  
               b(3) = ( -0.000000  0.043012  1.433749 )  


     PseudoPot. # 1 for O  read from file:
     /home/tim/espresso/pseudo/O.pbe-nl-rrkjus_psl.1.0.0.UPF
     MD5 check sum: 233c8028909f741e7889d61785a595bc
     Pseudo is Ultrasoft + core correction, Zval =  6.0
     Generated using 'atomic' code by A. Dal Corso  v.7.0
     Using radial grid of 1095 points,  4 beta functions with: 
                l(1) =   0
                l(2) =   0
                l(3) =   1
                l(4) =   1
     Q(r) pseudized with 0 coefficients 


     PseudoPot. # 2 for Mg read from file:
     /home/tim/espresso/pseudo/Mg.pbe-spnl-rrkjus_psl.1.0.0.UPF
     MD5 check sum: 37caad9c05fe2a5f639d8b65b442f5f9
     Pseudo is Ultrasoft + core correction, Zval = 10.0
     Generated using 'atomic' code by A. Dal Corso  v.7.0
     Using radial grid of 1129 points,  4 beta functions with: 
                l(1) =   0
                l(2) =   0
                l(3) =   1
                l(4) =   1
     Q(r) pseudized with 0 coefficients 


     PseudoPot. # 3 for Si read from file:
     /home/tim/espresso/pseudo/Si.pbe-nl-rrkjus_psl.1.0.0.UPF
     MD5 check sum: ceeb670d53204f1f4f48a0a0dd9ca3d4
     Pseudo is Ultrasoft + core correction, Zval =  4.0
     Generated using 'atomic' code by A. Dal Corso  v.7.0
     Using radial grid of 1141 points,  4 beta functions with: 
                l(1) =   0
                l(2) =   0
                l(3) =   1
                l(4) =   1
     Q(r) pseudized with 0 coefficients 


     atomic species   valence    mass     pseudopotential
        O              6.00    15.99900     O ( 1.00)
        Mg            10.00    24.30500     Mg( 1.00)
        Si             4.00    28.08500     Si( 1.00)

      2 Sym. Ops., with inversion, found



   Cartesian axes

     site n.     atom                  positions (alat units)
         1           O   tau(   1) = (   1.2559284   0.8214226   0.1175551  )
         2           O   tau(   2) = (   1.1121132   0.7154755   0.6445064  )
         3           O   tau(   3) = (   1.4134878   0.3194204   0.3825582  )
         4           O   tau(   4) = (   0.9414321   0.2572417   0.5475573  )
         5           O   tau(   5) = (   1.0852472   0.3631888   0.0206060  )
         6           O   tau(   6) = (   0.7838726   0.7592439   0.2825542  )
         7           Mg  tau(   7) = (   0.7921728   0.3888705   0.2397804  )
         8           Mg  tau(   8) = (   1.4051876   0.6897939   0.4253320  )
         9           Si  tau(   9) = (   0.3469074   0.1702937   0.1050044  )
        10           Si  tau(  10) = (   1.8504530   0.9083706   0.5601080  )

     number of k points=   452

     Number of k-points >= 100: set verbosity='high' to print them.

     Dense  grid:   141715 G-vectors     FFT dimensions: (  80,  80,  75)

     Smooth grid:    55203 G-vectors     FFT dimensions: (  60,  60,  60)

     Estimated max dynamical RAM per process >     133.08 MB

     Estimated total dynamical RAM >       1.98 GB

     Check: negative core charge=   -0.000002

     Initial potential from superposition of free atoms

     starting charge      63.9970, renormalised to      64.0000
     Starting wfcs are   42 randomized atomic wfcs

     total cpu time spent up to now is        9.0 secs

     per-process dynamical memory:   132.9 Mb

     Self-consistent Calculation

     iteration #  1     ecut=    80.00 Ry     beta= 0.70
     Davidson diagonalization with overlap
     ethr =  1.00E-02,  avg # of iterations =  2.0

     total cpu time spent up to now is       22.9 secs

     total energy              =    -468.49267246 Ry
     estimated scf accuracy    <       2.10810194 Ry

     iteration #  2     ecut=    80.00 Ry     beta= 0.70
     Davidson diagonalization with overlap
     ethr =  3.29E-03,  avg # of iterations =  3.0

     total cpu time spent up to now is       42.3 secs

     total energy              =    -469.21286209 Ry
     estimated scf accuracy    <       1.21473328 Ry

     iteration #  3     ecut=    80.00 Ry     beta= 0.70
     Davidson diagonalization with overlap
     ethr =  1.90E-03,  avg # of iterations =  2.0

     total cpu time spent up to now is       56.5 secs

     total energy              =    -469.38388504 Ry
     estimated scf accuracy    <       0.04195011 Ry

     iteration #  4     ecut=    80.00 Ry     beta= 0.70
     Davidson diagonalization with overlap
     ethr =  6.55E-05,  avg # of iterations =  5.2

     total cpu time spent up to now is       77.4 secs

     total energy              =    -469.42753161 Ry
     estimated scf accuracy    <       0.05286413 Ry

     iteration #  5     ecut=    80.00 Ry     beta= 0.70
     Davidson diagonalization with overlap
     ethr =  6.55E-05,  avg # of iterations =  2.0

     total cpu time spent up to now is       89.5 secs

     total energy              =    -469.42188208 Ry
     estimated scf accuracy    <       0.01859592 Ry

     iteration #  6     ecut=    80.00 Ry     beta= 0.70
     Davidson diagonalization with overlap
     ethr =  2.91E-05,  avg # of iterations =  2.0

     total cpu time spent up to now is      105.3 secs

     total energy              =    -469.42492387 Ry
     estimated scf accuracy    <       0.00078476 Ry

     iteration #  7     ecut=    80.00 Ry     beta= 0.70
     Davidson diagonalization with overlap
     ethr =  1.23E-06,  avg # of iterations =  5.6

     total cpu time spent up to now is      128.3 secs

     total energy              =    -469.42562603 Ry
     estimated scf accuracy    <       0.00003363 Ry

     iteration #  8     ecut=    80.00 Ry     beta= 0.70
     Davidson diagonalization with overlap
     ethr =  5.25E-08,  avg # of iterations =  4.8

     total cpu time spent up to now is      150.2 secs

     total energy              =    -469.42547475 Ry
     estimated scf accuracy    <       0.00056898 Ry

     iteration #  9     ecut=    80.00 Ry     beta= 0.70
     Davidson diagonalization with overlap
     ethr =  5.25E-08,  avg # of iterations =  4.0

     total cpu time spent up to now is      170.1 secs

     total energy              =    -469.42552952 Ry
     estimated scf accuracy    <       0.00002613 Ry

     iteration # 10     ecut=    80.00 Ry     beta= 0.70
     Davidson diagonalization with overlap
     ethr =  4.08E-08,  avg # of iterations =  2.6

     total cpu time spent up to now is      186.3 secs

     End of self-consistent calculation

     Number of k-points >= 100: set verbosity='high' to print the bands.

     highest occupied level (ev):     8.4161

!    total energy              =    -469.42553566 Ry
     estimated scf accuracy    <       0.00000012 Ry

     The total energy is the sum of the following terms:
     one-electron contribution =    -210.06753100 Ry
     hartree contribution      =     140.03780803 Ry
     xc contribution           =     -91.71001011 Ry
     ewald contribution        =    -307.68580257 Ry

     convergence has been achieved in  10 iterations

     Forces acting on atoms (cartesian axes, Ry/au):

     atom    1 type  1   force =     0.01694097    0.03140019    0.04945690
     atom    2 type  1   force =     0.00112971   -0.00075038   -0.00429468
     atom    3 type  1   force =     0.00134544    0.01335805    0.03975313
     atom    4 type  1   force =    -0.01694097   -0.03140019   -0.04945690
     atom    5 type  1   force =    -0.00112971    0.00075038    0.00429468
     atom    6 type  1   force =    -0.00134544   -0.01335805   -0.03975313
     atom    7 type  2   force =    -0.00844622   -0.00560155    0.00976694
     atom    8 type  2   force =     0.00844622    0.00560155   -0.00976694
     atom    9 type  3   force =    -0.01461708    0.03532304    0.00026389
     atom   10 type  3   force =     0.01461708   -0.03532304   -0.00026389

     Total force =     0.119661     Total SCF correction =     0.000090


     Computing stress (Cartesian axis) and pressure

          total   stress  (Ry/bohr**3)                   (kbar)     P=      187.16
   0.00073039  -0.00005185  -0.00007368          107.44       -7.63      -10.84
  -0.00005185   0.00072215   0.00068145           -7.63      106.23      100.24
  -0.00007368   0.00068145   0.00236428          -10.84      100.24      347.80


     BFGS Geometry Optimization
     Energy error            =      0.0E+00 Ry
     Gradient error          =      4.9E-02 Ry/Bohr

     number of scf cycles    =   1
     number of bfgs steps    =   0

     energy             new  =    -469.4255356589 Ry

     new trust radius        =       0.0609832209 bohr
     new conv_thr            =       0.0000010000 Ry


ATOMIC_POSITIONS (angstrom)
O             6.7032679615        4.3949327806        0.6527593071
O             5.9283427632        3.8132039301        3.4330515582
O             7.5348325284        1.7096317081        2.0601341275
O             5.0090216773        1.3545240112        2.8923982117
O             5.7839468756        1.9362528616        0.1121059607
O             4.1774571105        4.0398250836        1.4850233913
Mg            4.2179407820        2.0697787357        1.2832370496
Mg            7.4943488569        3.6796780560        2.2619204693
Si            1.8413380648        0.9263853617        0.5598299865
Si            9.8709515741        4.8230714300        2.9853275324



     Writing config-only to output data dir ./Aknew_.save/
     NEW-OLD atomic charge density approx. for the potential

     Check: negative core charge=   -0.000002

     total cpu time spent up to now is      201.4 secs

     per-process dynamical memory:   137.1 Mb

     Self-consistent Calculation

     iteration #  1     ecut=    80.00 Ry     beta= 0.70
     Davidson diagonalization with overlap
     ethr =  1.00E-06,  avg # of iterations =  9.0

     total cpu time spent up to now is      236.0 secs

     total energy              =    -469.43332701 Ry
     estimated scf accuracy    <       0.00319846 Ry

     iteration #  2     ecut=    80.00 Ry     beta= 0.70
     Davidson diagonalization with overlap
     ethr =  5.00E-06,  avg # of iterations =  2.0

     total cpu time spent up to now is      250.4 secs

     total energy              =    -469.43405374 Ry
     estimated scf accuracy    <       0.00033194 Ry

     iteration #  3     ecut=    80.00 Ry     beta= 0.70
     Davidson diagonalization with overlap
     ethr =  5.19E-07,  avg # of iterations =  2.0

     total cpu time spent up to now is      264.6 secs

     total energy              =    -469.43413066 Ry
     estimated scf accuracy    <       0.00001118 Ry

     iteration #  4     ecut=    80.00 Ry     beta= 0.70
     Davidson diagonalization with overlap
     ethr =  1.75E-08,  avg # of iterations =  4.5

     total cpu time spent up to now is      283.3 secs

     total energy              =    -469.43413432 Ry
     estimated scf accuracy    <       0.00000173 Ry

     iteration #  5     ecut=    80.00 Ry     beta= 0.70
     Davidson diagonalization with overlap
     ethr =  2.70E-09,  avg # of iterations =  3.3

     total cpu time spent up to now is      300.2 secs

     End of self-consistent calculation

     Number of k-points >= 100: set verbosity='high' to print the bands.

     highest occupied level (ev):     8.4514

!    total energy              =    -469.43413476 Ry
     estimated scf accuracy    <       0.00000029 Ry

     The total energy is the sum of the following terms:
     one-electron contribution =    -210.24806769 Ry
     hartree contribution      =     140.16629312 Ry
     xc contribution           =     -91.66110411 Ry
     ewald contribution        =    -307.69125608 Ry

     convergence has been achieved in   5 iterations

     Forces acting on atoms (cartesian axes, Ry/au):

     atom    1 type  1   force =    -0.00262990    0.00802000    0.00299312
     atom    2 type  1   force =    -0.00256961   -0.00481313   -0.00085043
     atom    3 type  1   force =    -0.00484343    0.00574919    0.02446204
     atom    4 type  1   force =     0.00262990   -0.00802000   -0.00299312
     atom    5 type  1   force =     0.00256961    0.00481313    0.00085043
     atom    6 type  1   force =     0.00484343   -0.00574919   -0.02446204
     atom    7 type  2   force =    -0.00824079   -0.00618342    0.00362652
     atom    8 type  2   force =     0.00824079    0.00618342   -0.00362652
     atom    9 type  3   force =    -0.00182618   -0.00039130   -0.01274942
     atom   10 type  3   force =     0.00182618    0.00039130    0.01274942

     Total force =     0.045846     Total SCF correction =     0.000745


     Computing stress (Cartesian axis) and pressure

          total   stress  (Ry/bohr**3)                   (kbar)     P=      166.47
   0.00069541  -0.00011799  -0.00011659          102.30      -17.36      -17.15
  -0.00011799   0.00060203   0.00045708          -17.36       88.56       67.24
  -0.00011659   0.00045708   0.00209741          -17.15       67.24      308.54

     Energy error            =      8.6E-03 Ry
     Gradient error          =      2.4E-02 Ry/Bohr

     number of scf cycles    =   2
     number of bfgs steps    =   1

     energy             old  =    -469.4255356589 Ry
     energy             new  =    -469.4341347586 Ry

     CASE: energy            _new < energy            _old

     new trust radius        =       0.0393348472 bohr
     new conv_thr            =       0.0000002446 Ry


ATOMIC_POSITIONS (angstrom)
O             6.7029498309        4.4030545379        0.6590396198
O             5.9267040317        3.8098876257        3.4321072517
O             7.5316762005        1.7146659200        2.0800831347
O             5.0093398079        1.3464022539        2.8861178990
O             5.7855856071        1.9395691660        0.1130502672
O             4.1806134384        4.0347908717        1.4650743841
Mg            4.2116461803        2.0651189927        1.2865280104
Mg            7.5006434586        3.6843377990        2.2586295085
Si            1.8388457966        0.9291622872        0.5512393348
Si            9.8734438423        4.8202945045        2.9939181841



     Writing config-only to output data dir ./Aknew_.save/
     NEW-OLD atomic charge density approx. for the potential

     Check: negative core charge=   -0.000002

     total cpu time spent up to now is      314.6 secs

     per-process dynamical memory:   137.1 Mb

     Self-consistent Calculation

     iteration #  1     ecut=    80.00 Ry     beta= 0.70
     Davidson diagonalization with overlap
     ethr =  1.00E-06,  avg # of iterations =  8.1

     total cpu time spent up to now is      345.6 secs

     total energy              =    -469.43593679 Ry
     estimated scf accuracy    <       0.00077840 Ry

     iteration #  2     ecut=    80.00 Ry     beta= 0.70
     Davidson diagonalization with overlap
     ethr =  1.22E-06,  avg # of iterations =  2.0

     total cpu time spent up to now is      360.6 secs

     total energy              =    -469.43606778 Ry
     estimated scf accuracy    <       0.00004322 Ry

     iteration #  3     ecut=    80.00 Ry     beta= 0.70
     Davidson diagonalization with overlap
     ethr =  6.75E-08,  avg # of iterations =  2.8

     total cpu time spent up to now is      376.4 secs

     total energy              =    -469.43607939 Ry
     estimated scf accuracy    <       0.00000670 Ry

     iteration #  4     ecut=    80.00 Ry     beta= 0.70
     Davidson diagonalization with overlap
     ethr =  1.05E-08,  avg # of iterations =  4.3

     total cpu time spent up to now is      393.5 secs

     total energy              =    -469.43608145 Ry
     estimated scf accuracy    <       0.00000069 Ry

     iteration #  5     ecut=    80.00 Ry     beta= 0.70
     Davidson diagonalization with overlap
     ethr =  1.08E-09,  avg # of iterations =  3.2

     total cpu time spent up to now is      409.3 secs

     End of self-consistent calculation

     Number of k-points >= 100: set verbosity='high' to print the bands.

     highest occupied level (ev):     8.4736

!    total energy              =    -469.43608162 Ry
     estimated scf accuracy    <       0.00000006 Ry

     The total energy is the sum of the following terms:
     one-electron contribution =    -210.17182591 Ry
     hartree contribution      =     140.13754262 Ry
     xc contribution           =     -91.64327686 Ry
     ewald contribution        =    -307.75852146 Ry

     convergence has been achieved in   5 iterations

     Forces acting on atoms (cartesian axes, Ry/au):

     atom    1 type  1   force =    -0.00576639    0.00334679   -0.00141992
     atom    2 type  1   force =    -0.00252945   -0.00523733    0.00075736
     atom    3 type  1   force =    -0.00549913   -0.00151065    0.00573334
     atom    4 type  1   force =     0.00576639   -0.00334679    0.00141992
     atom    5 type  1   force =     0.00252945    0.00523733   -0.00075736
     atom    6 type  1   force =     0.00549913    0.00151065   -0.00573334
     atom    7 type  2   force =    -0.00656652   -0.00540480    0.00100409
     atom    8 type  2   force =     0.00656652    0.00540480   -0.00100409
     atom    9 type  3   force =     0.00151160   -0.00389290    0.00235461
     atom   10 type  3   force =    -0.00151160    0.00389290   -0.00235461

     Total force =     0.022027     Total SCF correction =     0.001122


     Computing stress (Cartesian axis) and pressure

          total   stress  (Ry/bohr**3)                   (kbar)     P=      158.97
   0.00070290  -0.00014523  -0.00012527          103.40      -21.36      -18.43
  -0.00014523   0.00057309   0.00038042          -21.36       84.30       55.96
  -0.00012527   0.00038042   0.00196599          -18.43       55.96      289.21

     Energy error            =      1.9E-03 Ry
     Gradient error          =      6.6E-03 Ry/Bohr

     number of scf cycles    =   3
     number of bfgs steps    =   2

     energy             old  =    -469.4341347586 Ry
     energy             new  =    -469.4360816151 Ry

     CASE: energy            _new < energy            _old

     new trust radius        =       0.0189382780 bohr
     new conv_thr            =       0.0000000657 Ry


ATOMIC_POSITIONS (angstrom)
O             6.6994593714        4.4079396328        0.6608820182
O             5.9246827638        3.8056130769        3.4323129387
O             7.5273201282        1.7150020863        2.0891023476
O             5.0128302674        1.3415171590        2.8842755006
O             5.7876068750        1.9438437148        0.1128445802
O             4.1849695107        4.0344547054        1.4560551712
Mg            4.2056377328        2.0603157393        1.2881640291
Mg            7.5066519061        3.6891410524        2.2569934898
Si            1.8389404841        0.9281636846        0.5512848157
Si            9.8733491548        4.8212931071        2.9938727032



     Writing config-only to output data dir ./Aknew_.save/
     NEW-OLD atomic charge density approx. for the potential

     Check: negative core charge=   -0.000002

     total cpu time spent up to now is      423.9 secs

     per-process dynamical memory:   137.1 Mb

     Self-consistent Calculation

     iteration #  1     ecut=    80.00 Ry     beta= 0.70
     Davidson diagonalization with overlap
     ethr =  1.00E-06,  avg # of iterations =  8.0

     total cpu time spent up to now is      453.2 secs

     total energy              =    -469.43657062 Ry
     estimated scf accuracy    <       0.00019323 Ry

     iteration #  2     ecut=    80.00 Ry     beta= 0.70
     Davidson diagonalization with overlap
     ethr =  3.02E-07,  avg # of iterations =  2.0

     total cpu time spent up to now is      467.7 secs

     total energy              =    -469.43660267 Ry
     estimated scf accuracy    <       0.00000546 Ry

     iteration #  3     ecut=    80.00 Ry     beta= 0.70
     Davidson diagonalization with overlap
     ethr =  8.52E-09,  avg # of iterations =  4.5

     total cpu time spent up to now is      485.5 secs

     total energy              =    -469.43660503 Ry
     estimated scf accuracy    <       0.00000086 Ry

     iteration #  4     ecut=    80.00 Ry     beta= 0.70
     Davidson diagonalization with overlap
     ethr =  1.35E-09,  avg # of iterations =  3.2

     total cpu time spent up to now is      502.1 secs

     total energy              =    -469.43660522 Ry
     estimated scf accuracy    <       0.00000015 Ry

     iteration #  5     ecut=    80.00 Ry     beta= 0.70
     Davidson diagonalization with overlap
     ethr =  2.36E-10,  avg # of iterations =  3.4

     total cpu time spent up to now is      518.0 secs

     End of self-consistent calculation

     Number of k-points >= 100: set verbosity='high' to print the bands.

     highest occupied level (ev):     8.4787

!    total energy              =    -469.43660526 Ry
     estimated scf accuracy    <       0.00000002 Ry

     The total energy is the sum of the following terms:
     one-electron contribution =    -210.18147276 Ry
     hartree contribution      =     140.13712398 Ry
     xc contribution           =     -91.64247674 Ry
     ewald contribution        =    -307.74977974 Ry

     convergence has been achieved in   5 iterations

     Forces acting on atoms (cartesian axes, Ry/au):

     atom    1 type  1   force =    -0.00372923    0.00013050   -0.00127633
     atom    2 type  1   force =    -0.00119417   -0.00272679    0.00059439
     atom    3 type  1   force =    -0.00259270   -0.00010645   -0.00075990
     atom    4 type  1   force =     0.00372923   -0.00013050    0.00127633
     atom    5 type  1   force =     0.00119417    0.00272679   -0.00059439
     atom    6 type  1   force =     0.00259270    0.00010645    0.00075990
     atom    7 type  2   force =    -0.00346643   -0.00350517   -0.00027368
     atom    8 type  2   force =     0.00346643    0.00350517    0.00027368
     atom    9 type  3   force =     0.00183529   -0.00273697    0.00180707
     atom   10 type  3   force =    -0.00183529    0.00273697   -0.00180707

     Total force =     0.011881     Total SCF correction =     0.000281


     Computing stress (Cartesian axis) and pressure

          total   stress  (Ry/bohr**3)                   (kbar)     P=      157.90
   0.00072626  -0.00012837  -0.00012749          106.84      -18.88      -18.75
  -0.00012837   0.00056958   0.00035347          -18.88       83.79       52.00
  -0.00012749   0.00035347   0.00192428          -18.75       52.00      283.07

     Energy error            =      5.2E-04 Ry
     Gradient error          =      3.7E-03 Ry/Bohr

     number of scf cycles    =   4
     number of bfgs steps    =   3

     energy             old  =    -469.4360816151 Ry
     energy             new  =    -469.4366052563 Ry

     CASE: energy            _new < energy            _old

     new trust radius        =       0.0108943551 bohr
     new conv_thr            =       0.0000000373 Ry


ATOMIC_POSITIONS (angstrom)
O             6.6961578400        4.4097485846        0.6612187463
O             5.9233274503        3.8025557657        3.4326965639
O             7.5243960785        1.7154923457        2.0917526518
O             5.0161317988        1.3397082072        2.8839387725
O             5.7889621885        1.9469010260        0.1124609550
O             4.1878935604        4.0339644460        1.4534048670
Mg            4.2014228596        2.0564011227        1.2885465961
Mg            7.5108667793        3.6930556690        2.2566109228
Si            1.8400562471        0.9264815080        0.5521377906
Si            9.8722333918        4.8229752837        2.9930197283



     Writing config-only to output data dir ./Aknew_.save/
     NEW-OLD atomic charge density approx. for the potential

     Check: negative core charge=   -0.000002

     total cpu time spent up to now is      533.2 secs

     per-process dynamical memory:   137.1 Mb

     Self-consistent Calculation

     iteration #  1     ecut=    80.00 Ry     beta= 0.70
     Davidson diagonalization with overlap
     ethr =  1.00E-06,  avg # of iterations =  7.0

     Threshold (ethr) on eigenvalues was too large:
     Diagonalizing with lowered threshold

     Davidson diagonalization with overlap
     ethr =  8.31E-08,  avg # of iterations =  2.0

     total cpu time spent up to now is      570.7 secs

     total energy              =    -469.43673627 Ry
     estimated scf accuracy    <       0.00006107 Ry

     iteration #  2     ecut=    80.00 Ry     beta= 0.70
     Davidson diagonalization with overlap
     ethr =  9.54E-08,  avg # of iterations =  2.0

     total cpu time spent up to now is      587.7 secs

     total energy              =    -469.43674926 Ry
     estimated scf accuracy    <       0.00000492 Ry

     iteration #  3     ecut=    80.00 Ry     beta= 0.70
     Davidson diagonalization with overlap
     ethr =  7.69E-09,  avg # of iterations =  2.0

     total cpu time spent up to now is      601.3 secs

     total energy              =    -469.43675047 Ry
     estimated scf accuracy    <       0.00000024 Ry

     iteration #  4     ecut=    80.00 Ry     beta= 0.70
     Davidson diagonalization with overlap
     ethr =  3.72E-10,  avg # of iterations =  5.0

     total cpu time spent up to now is      619.6 secs

     End of self-consistent calculation

     Number of k-points >= 100: set verbosity='high' to print the bands.

     highest occupied level (ev):     8.4735

!    total energy              =    -469.43675057 Ry
     estimated scf accuracy    <       0.00000003 Ry

     The total energy is the sum of the following terms:
     one-electron contribution =    -210.24187822 Ry
     hartree contribution      =     140.16085640 Ry
     xc contribution           =     -91.64512040 Ry
     ewald contribution        =    -307.71060835 Ry

     convergence has been achieved in   4 iterations

     Forces acting on atoms (cartesian axes, Ry/au):

     atom    1 type  1   force =    -0.00098868   -0.00102575    0.00027206
     atom    2 type  1   force =     0.00008115   -0.00027137   -0.00011569
     atom    3 type  1   force =    -0.00054935    0.00104697   -0.00205782
     atom    4 type  1   force =     0.00098868    0.00102575   -0.00027206
     atom    5 type  1   force =    -0.00008115    0.00027137    0.00011569
     atom    6 type  1   force =     0.00054935   -0.00104697    0.00205782
     atom    7 type  2   force =    -0.00141454   -0.00186313   -0.00066695
     atom    8 type  2   force =     0.00141454    0.00186313    0.00066695
     atom    9 type  3   force =     0.00052699   -0.00015689    0.00035768
     atom   10 type  3   force =    -0.00052699    0.00015689   -0.00035768

     Total force =     0.005325     Total SCF correction =     0.000340


     Computing stress (Cartesian axis) and pressure

          total   stress  (Ry/bohr**3)                   (kbar)     P=      158.29
   0.00074363  -0.00011157  -0.00012416          109.39      -16.41      -18.27
  -0.00011157   0.00057002   0.00034995          -16.41       83.85       51.48
  -0.00012416   0.00034995   0.00191437          -18.27       51.48      281.61

     Energy error            =      1.5E-04 Ry
     Gradient error          =      2.1E-03 Ry/Bohr

     number of scf cycles    =   5
     number of bfgs steps    =   4

     energy             old  =    -469.4366052563 Ry
     energy             new  =    -469.4367505743 Ry

     CASE: energy            _new < energy            _old

     new trust radius        =       0.0048236698 bohr
     new conv_thr            =       0.0000000145 Ry


ATOMIC_POSITIONS (angstrom)
O             6.6949593230        4.4094566350        0.6614798357
O             5.9231385952        3.8018423937        3.4326744643
O             7.5235108205        1.7162669860        2.0910574449
O             5.0173303158        1.3400001568        2.8836776831
O             5.7891510436        1.9476143980        0.1124830546
O             4.1887788184        4.0331898057        1.4541000739
Mg            4.1997453414        2.0545069159        1.2882096121
Mg            7.5125442975        3.6949498758        2.2569479068
Si            1.8405514231        0.9261129548        0.5524464794
Si            9.8717382158        4.8233438369        2.9927110395



     Writing config-only to output data dir ./Aknew_.save/
     NEW-OLD atomic charge density approx. for the potential

     Check: negative core charge=   -0.000002

     total cpu time spent up to now is      633.6 secs

     per-process dynamical memory:   137.1 Mb

     Self-consistent Calculation

     iteration #  1     ecut=    80.00 Ry     beta= 0.70
     Davidson diagonalization with overlap
     ethr =  1.00E-06,  avg # of iterations =  5.1

     Threshold (ethr) on eigenvalues was too large:
     Diagonalizing with lowered threshold

     Davidson diagonalization with overlap
     ethr =  5.94E-09,  avg # of iterations =  3.3

     total cpu time spent up to now is      671.5 secs

     total energy              =    -469.43677814 Ry
     estimated scf accuracy    <       0.00000593 Ry

     iteration #  2     ecut=    80.00 Ry     beta= 0.70
     Davidson diagonalization with overlap
     ethr =  9.27E-09,  avg # of iterations =  2.0

     total cpu time spent up to now is      685.1 secs

     total energy              =    -469.43677962 Ry
     estimated scf accuracy    <       0.00000069 Ry

     iteration #  3     ecut=    80.00 Ry     beta= 0.70
     Davidson diagonalization with overlap
     ethr =  1.08E-09,  avg # of iterations =  2.2

     total cpu time spent up to now is      699.7 secs

     total energy              =    -469.43677979 Ry
     estimated scf accuracy    <       0.00000005 Ry

     iteration #  4     ecut=    80.00 Ry     beta= 0.70
     Davidson diagonalization with overlap
     ethr =  7.53E-11,  avg # of iterations =  5.0

     total cpu time spent up to now is      717.9 secs

     End of self-consistent calculation

     Number of k-points >= 100: set verbosity='high' to print the bands.

     highest occupied level (ev):     8.4702

!    total energy              =    -469.43677981 Ry
     estimated scf accuracy    <          5.2E-09 Ry

     The total energy is the sum of the following terms:
     one-electron contribution =    -210.29776489 Ry
     hartree contribution      =     140.18650397 Ry
     xc contribution           =     -91.64609537 Ry
     ewald contribution        =    -307.67942352 Ry

     convergence has been achieved in   4 iterations

     Forces acting on atoms (cartesian axes, Ry/au):

     atom    1 type  1   force =    -0.00002135   -0.00099328    0.00057628
     atom    2 type  1   force =     0.00051584    0.00050134   -0.00041254
     atom    3 type  1   force =    -0.00016343    0.00094185   -0.00121525
     atom    4 type  1   force =     0.00002135    0.00099328   -0.00057628
     atom    5 type  1   force =    -0.00051584   -0.00050134    0.00041254
     atom    6 type  1   force =     0.00016343   -0.00094185    0.00121525
     atom    7 type  2   force =    -0.00071214   -0.00098905   -0.00065136
     atom    8 type  2   force =     0.00071214    0.00098905    0.00065136
     atom    9 type  3   force =    -0.00030416    0.00047126   -0.00012388
     atom   10 type  3   force =     0.00030416   -0.00047126    0.00012388

     Total force =     0.003643     Total SCF correction =     0.000161


     Computing stress (Cartesian axis) and pressure

          total   stress  (Ry/bohr**3)                   (kbar)     P=      158.48
   0.00074818  -0.00010636  -0.00011978          110.06      -15.65      -17.62
  -0.00010636   0.00056840   0.00035245          -15.65       83.61       51.85
  -0.00011978   0.00035245   0.00191547          -17.62       51.85      281.77

     Energy error            =      2.9E-05 Ry
     Gradient error          =      1.2E-03 Ry/Bohr

     number of scf cycles    =   6
     number of bfgs steps    =   5

     energy             old  =    -469.4367505743 Ry
     energy             new  =    -469.4367798088 Ry

     CASE: energy            _new < energy            _old

     new trust radius        =       0.0047384577 bohr
     new conv_thr            =       0.0000000100 Ry


ATOMIC_POSITIONS (angstrom)
O             6.6942108123        4.4084427424        0.6619513149
O             5.9234481109        3.8018358592        3.4323311412
O             7.5228281984        1.7173791348        2.0896801996
O             5.0180788265        1.3410140494        2.8832062039
O             5.7888415279        1.9476209325        0.1128263777
O             4.1894614405        4.0320776569        1.4554773192
Mg            4.1982202383        2.0526576455        1.2874735857
Mg            7.5140694006        3.6967991462        2.2576839332
Si            1.8405845401        0.9261715351        0.5525535310
Si            9.8717050988        4.8232852566        2.9926039879



     Writing config-only to output data dir ./Aknew_.save/
     NEW-OLD atomic charge density approx. for the potential

     Check: negative core charge=   -0.000002

     total cpu time spent up to now is      733.7 secs

     per-process dynamical memory:   137.1 Mb

     Self-consistent Calculation

     iteration #  1     ecut=    80.00 Ry     beta= 0.70
     Davidson diagonalization with overlap
     ethr =  1.00E-06,  avg # of iterations =  5.1

     Threshold (ethr) on eigenvalues was too large:
     Diagonalizing with lowered threshold

     Davidson diagonalization with overlap
     ethr =  6.71E-09,  avg # of iterations =  4.3

     total cpu time spent up to now is      771.4 secs

     total energy              =    -469.43679803 Ry
     estimated scf accuracy    <       0.00000657 Ry

     iteration #  2     ecut=    80.00 Ry     beta= 0.70
     Davidson diagonalization with overlap
     ethr =  1.03E-08,  avg # of iterations =  2.0

     total cpu time spent up to now is      785.6 secs

     total energy              =    -469.43679938 Ry
     estimated scf accuracy    <       0.00000040 Ry

     iteration #  3     ecut=    80.00 Ry     beta= 0.70
     Davidson diagonalization with overlap
     ethr =  6.25E-10,  avg # of iterations =  3.4

     total cpu time spent up to now is      802.1 secs

     total energy              =    -469.43679949 Ry
     estimated scf accuracy    <       0.00000009 Ry

     iteration #  4     ecut=    80.00 Ry     beta= 0.70
     Davidson diagonalization with overlap
     ethr =  1.40E-10,  avg # of iterations =  3.5

     total cpu time spent up to now is      818.5 secs

     End of self-consistent calculation

     Number of k-points >= 100: set verbosity='high' to print the bands.

     highest occupied level (ev):     8.4687

!    total energy              =    -469.43679951 Ry
     estimated scf accuracy    <          5.5E-09 Ry

     The total energy is the sum of the following terms:
     one-electron contribution =    -210.35904907 Ry
     hartree contribution      =     140.21581549 Ry
     xc contribution           =     -91.64615908 Ry
     ewald contribution        =    -307.64740684 Ry

     convergence has been achieved in   4 iterations

     Forces acting on atoms (cartesian axes, Ry/au):

     atom    1 type  1   force =     0.00043226   -0.00061476    0.00046369
     atom    2 type  1   force =     0.00050505    0.00073172   -0.00040084
     atom    3 type  1   force =    -0.00007938    0.00043030   -0.00005882
     atom    4 type  1   force =    -0.00043226    0.00061476   -0.00046369
     atom    5 type  1   force =    -0.00050505   -0.00073172    0.00040084
     atom    6 type  1   force =     0.00007938   -0.00043030    0.00005882
     atom    7 type  2   force =    -0.00029955   -0.00021826   -0.00039208
     atom    8 type  2   force =     0.00029955    0.00021826    0.00039208
     atom    9 type  3   force =    -0.00082098    0.00043963   -0.00032077
     atom   10 type  3   force =     0.00082098   -0.00043963    0.00032077

     Total force =     0.002525     Total SCF correction =     0.000080


     Computing stress (Cartesian axis) and pressure

          total   stress  (Ry/bohr**3)                   (kbar)     P=      158.43
   0.00074907  -0.00010367  -0.00011442          110.19      -15.25      -16.83
  -0.00010367   0.00056454   0.00035538          -15.25       83.05       52.28
  -0.00011442   0.00035538   0.00191745          -16.83       52.28      282.07

     Energy error            =      2.0E-05 Ry
     Gradient error          =      8.2E-04 Ry/Bohr

     bfgs converged in   7 scf cycles and   6 bfgs steps
     (criteria: energy <  1.0E-04 Ry, force <  1.0E-03 Ry/Bohr)

     End of BFGS Geometry Optimization

     Final energy             =    -469.4367995101 Ry

     File ./Aknew_.bfgs deleted, as requested
Begin final coordinates

ATOMIC_POSITIONS (angstrom)
O             6.6942108123        4.4084427424        0.6619513149
O             5.9234481109        3.8018358592        3.4323311412
O             7.5228281984        1.7173791348        2.0896801996
O             5.0180788265        1.3410140494        2.8832062039
O             5.7888415279        1.9476209325        0.1128263777
O             4.1894614405        4.0320776569        1.4554773192
Mg            4.1982202383        2.0526576455        1.2874735857
Mg            7.5140694006        3.6967991462        2.2576839332
Si            1.8405845401        0.9261715351        0.5525535310
Si            9.8717050988        4.8232852566        2.9926039879
End final coordinates



     Writing all to output data dir ./Aknew_.save/

     init_run     :      8.62s CPU      8.78s WALL (       1 calls)
     electrons    :    714.14s CPU    720.54s WALL (       7 calls)
     update_pot   :     20.44s CPU     20.51s WALL (       6 calls)
     forces       :     26.76s CPU     26.95s WALL (       7 calls)
     stress       :     51.81s CPU     52.00s WALL (       7 calls)

     Called by init_run:
     wfcinit      :      4.62s CPU      4.73s WALL (       1 calls)
     potinit      :      1.54s CPU      1.57s WALL (       1 calls)
     hinit0       :      2.39s CPU      2.39s WALL (       1 calls)

     Called by electrons:
     c_bands      :    634.24s CPU    639.30s WALL (      40 calls)
     sum_band     :     73.65s CPU     74.28s WALL (      40 calls)
     v_of_rho     :      4.46s CPU      5.13s WALL (      44 calls)
     newd         :      1.68s CPU      1.79s WALL (      44 calls)
     mix_rho      :      0.20s CPU      0.20s WALL (      40 calls)

     Called by c_bands:
     init_us_2    :     12.67s CPU     12.72s WALL (   10735 calls)
     init_us_2:cp :     12.62s CPU     12.68s WALL (   10735 calls)
     cegterg      :    574.32s CPU    579.25s WALL (    4520 calls)

     Called by *egterg:
     cdiaghg      :     27.83s CPU     27.98s WALL (   20362 calls)
     h_psi        :    414.10s CPU    418.57s WALL (   21492 calls)
     s_psi        :     18.72s CPU     18.78s WALL (   21492 calls)
     g_psi        :      2.47s CPU      2.48s WALL (   16859 calls)

     Called by h_psi:
     h_psi:calbec :     35.64s CPU     35.83s WALL (   21492 calls)
     vloc_psi     :    351.25s CPU    355.43s WALL (   21492 calls)
     add_vuspsi   :     22.19s CPU     22.26s WALL (   21492 calls)

     General routines
     calbec       :     51.80s CPU     52.07s WALL (   29967 calls)
     fft          :      3.69s CPU      3.88s WALL (     742 calls)
     ffts         :      0.27s CPU      0.27s WALL (      84 calls)
     fftw         :    354.22s CPU    358.22s WALL ( 1093626 calls)
     interpolate  :      0.46s CPU      0.46s WALL (      44 calls)

     Parallel routines

     PWSCF        :  13m42.94s CPU  13m50.29s WALL


   This run was terminated on:  12:37:27   4Aug2025            

=------------------------------------------------------------------------------=
   JOB DONE.
=------------------------------------------------------------------------------=
