&CONTROL
   calculation      = 'relax'
   tstress          = .true.
   tprnfor          = .true.
   prefix           = 'Aknew_'
/
&SYSTEM
   ecutwfc          = 80
   ecutrho          = 600
   ntyp             = 3
   nat              = 10
   ibrav            = 0
/
&ELECTRONS
   conv_thr         = 1e-09
   mixing_beta      = 0.4
/
&IONS
   ion_dynamics     = 'bfgs'
/
&CELL
   cell_dynamics    = 'bfgs'
/

ATOMIC_SPECIES
O 15.999 O.wc-nl-rrkjus_psl.1.0.0.UPF
Mg 24.305 Mg.wc-spnl-rrkjus_psl.1.0.0.UPF
Si 28.085 Si.wc-nl-rrkjus_psl.1.0.0.UPF

K_POINTS automatic
10 10 9  0 0 0

CELL_PARAMETERS angstrom
2.75286103500000 -0.06827048860500 4.41482492979000
-1.37643051700000 2.31577710039500 4.37906421595500
-1.37643051700000 -2.45231807760500 4.45058564362500

ATOMIC_POSITIONS angstrom
O 1.3292746161 -0.6436680924 3.1930953059 
O -0.1498473750 1.3991598130 3.1624528874 
O -1.1794272411 -0.9032113594 3.1969884549 
O -1.3292746161 0.6436680924 -3.1930953059 
O 0.1498473750 -1.3991598130 -3.1624528874 
O 1.1794272411 0.9032113594 -3.1969884549 
Mg 0.0000000000 -0.0738105028 4.7730791811 
Mg 0.0000000000 0.0738105028 -4.7730791811 
Si 0.0000000000 -0.0323231256 2.0902287915 
Si 0.0000000000 0.0323231256 -2.0902287915 

