
     Program PWSCF v.7.0 starts on  4Aug2025 at  9:32:22 

     This program is part of the open-source Quantum ESPRESSO suite
     for quantum simulation of materials; please cite
         "P. Giannozzi et al., J. Phys.:Condens. Matter 21 395502 (2009);
         "P. Giannozzi et al., J. Phys.:Condens. Matter 29 465901 (2017);
         "P. Giannozzi et al., J. Chem. Phys. 152 154105 (2020);
          URL http://www.quantum-espresso.org", 
     in publications or presentations arising from this work. More details at
     http://www.quantum-espresso.org/quote

     Parallel version (MPI & OpenMP), running on      16 processor cores
     Number of MPI processes:                16
     Threads/MPI process:                     1

     MPI processes distributed on     1 nodes
     K-points division:     npool     =       4
     R & G space division:  proc/nbgrp/npool/nimage =       4
     4238 MiB available memory on the printing compute node when the environment starts

     Waiting for input...
     Reading input from standard input
Warning: card &CELL ignored
Warning: card    CELL_DYNAMICS    = 'BFGS' ignored
Warning: card    PRESS            = 150 ignored
Warning: card    PRESS_CONV_THR   = 0.05 ignored
Warning: card / ignored

     Current dimensions of program PWSCF are:
     Max number of different atomic species (ntypx) = 10
     Max number of k-points (npk) =  40000
     Max angular momentum in pseudopotentials (lmaxx) =  4
     file O.pbe-nl-rrkjus_psl.1.0.0.UPF: wavefunction(s)  2S renormalized
     file Mg.pbe-spnl-rrkjus_psl.1.0.0.UPF: wavefunction(s)  2P renormalized
     Message from routine setup:
     using ibrav=0 with symmetry is DISCOURAGED, use correct ibrav instead

     Subspace diagonalization in iterative solution of the eigenvalue problem:
     one sub-group per band group will be used
     scalapack distributed-memory algorithm (size of sub-group:  2*  2 procs)


     Parallelization info
     --------------------
     sticks:   dense  smooth     PW     G-vecs:    dense   smooth      PW
     Min        1032     551    162                40183    15649    2493
     Max        1033     552    163                40184    15650    2494
     Sum        4129    2205    649               160735    62599    9975

     Using Slab Decomposition



     bravais-lattice index     =            0
     lattice parameter (alat)  =      10.6987  a.u.
     unit-cell volume          =     647.7200 (a.u.)^3
     number of atoms/cell      =           10
     number of atomic types    =            3
     number of electrons       =        64.00
     number of Kohn-Sham states=           32
     kinetic-energy cutoff     =      80.0000  Ry
     charge density cutoff     =     600.0000  Ry
     scf convergence threshold =      1.0E-06
     mixing beta               =       0.7000
     number of iterations used =            8  plain     mixing
     energy convergence thresh.=      1.0E-04
     force convergence thresh. =      1.0E-03
     Exchange-correlation= PBE
                           (   1   4   3   4   0   0   0)
     nstep                     =           50


     celldm(1)=  10.698651  celldm(2)=   0.000000  celldm(3)=   0.000000
     celldm(4)=   0.000000  celldm(5)=   0.000000  celldm(6)=   0.000000

     crystal axes: (cart. coord. in units of alat)
               a(1) = (   1.000000   0.000000   0.000000 )  
               a(2) = (   0.599165   0.755307   0.000000 )  
               a(3) = (   0.599165   0.282994   0.700288 )  

     reciprocal axes: (cart. coord. in units 2 pi/alat)
               b(1) = (  1.000000 -0.793273 -0.535028 )  
               b(2) = (  0.000000  1.323965 -0.535028 )  
               b(3) = (  0.000000  0.000000  1.427984 )  


     PseudoPot. # 1 for O  read from file:
     /home/tim/espresso/pseudo/O.pbe-nl-rrkjus_psl.1.0.0.UPF
     MD5 check sum: 233c8028909f741e7889d61785a595bc
     Pseudo is Ultrasoft + core correction, Zval =  6.0
     Generated using 'atomic' code by A. Dal Corso  v.7.0
     Using radial grid of 1095 points,  4 beta functions with: 
                l(1) =   0
                l(2) =   0
                l(3) =   1
                l(4) =   1
     Q(r) pseudized with 0 coefficients 


     PseudoPot. # 2 for Mg read from file:
     /home/tim/espresso/pseudo/Mg.pbe-spnl-rrkjus_psl.1.0.0.UPF
     MD5 check sum: 37caad9c05fe2a5f639d8b65b442f5f9
     Pseudo is Ultrasoft + core correction, Zval = 10.0
     Generated using 'atomic' code by A. Dal Corso  v.7.0
     Using radial grid of 1129 points,  4 beta functions with: 
                l(1) =   0
                l(2) =   0
                l(3) =   1
                l(4) =   1
     Q(r) pseudized with 0 coefficients 


     PseudoPot. # 3 for Si read from file:
     /home/tim/espresso/pseudo/Si.pbe-nl-rrkjus_psl.1.0.0.UPF
     MD5 check sum: ceeb670d53204f1f4f48a0a0dd9ca3d4
     Pseudo is Ultrasoft + core correction, Zval =  4.0
     Generated using 'atomic' code by A. Dal Corso  v.7.0
     Using radial grid of 1141 points,  4 beta functions with: 
                l(1) =   0
                l(2) =   0
                l(3) =   1
                l(4) =   1
     Q(r) pseudized with 0 coefficients 


     atomic species   valence    mass     pseudopotential
        O              6.00    15.99900     O ( 1.00)
        Mg            10.00    24.30500     Mg( 1.00)
        Si             4.00    28.08500     Si( 1.00)

      2 Sym. Ops., with inversion, found



   Cartesian axes

     site n.     atom                  positions (alat units)
         1           O   tau(   1) = (   1.2562593   0.7788371   0.1426021  )
         2           O   tau(   2) = (   1.1125604   0.6948011   0.6686748  )
         3           O   tau(   3) = (   1.4136769   0.3128857   0.3936547  )
         4           O   tau(   4) = (   0.9420708   0.2594637   0.5576860  )
         5           O   tau(   5) = (   1.0857697   0.3434997   0.0316133  )
         6           O   tau(   6) = (   0.7846531   0.7254151   0.3066334  )
         7           Mg  tau(   7) = (   0.7928322   0.3744653   0.2525603  )
         8           Mg  tau(   8) = (   1.4054979   0.6638355   0.4477278  )
         9           Si  tau(   9) = (   0.3472196   0.1639965   0.1106084  )
        10           Si  tau(  10) = (   1.8511105   0.8743043   0.5896797  )

     number of k points=   452

     Number of k-points >= 100: set verbosity='high' to print them.

     Dense  grid:   160735 G-vectors     FFT dimensions: (  90,  81,  81)

     Smooth grid:    62599 G-vectors     FFT dimensions: (  64,  60,  60)

     Estimated max dynamical RAM per process >     151.79 MB

     Estimated total dynamical RAM >       2.26 GB

     Check: negative core charge=   -0.000002

     Initial potential from superposition of free atoms

     starting charge      63.9970, renormalised to      64.0000
     Starting wfcs are   42 randomized atomic wfcs

     total cpu time spent up to now is        9.7 secs

     per-process dynamical memory:   149.6 Mb

     Self-consistent Calculation

     iteration #  1     ecut=    80.00 Ry     beta= 0.70
     Davidson diagonalization with overlap
     ethr =  1.00E-02,  avg # of iterations =  2.0

     total cpu time spent up to now is       24.9 secs

     total energy              =    -468.49221001 Ry
     estimated scf accuracy    <       2.09488486 Ry

     iteration #  2     ecut=    80.00 Ry     beta= 0.70
     Davidson diagonalization with overlap
     ethr =  3.27E-03,  avg # of iterations =  3.0

     total cpu time spent up to now is       43.7 secs

     total energy              =    -469.18897869 Ry
     estimated scf accuracy    <       1.53540426 Ry

     iteration #  3     ecut=    80.00 Ry     beta= 0.70
     Davidson diagonalization with overlap
     ethr =  2.40E-03,  avg # of iterations =  2.0

     total cpu time spent up to now is       58.9 secs

     total energy              =    -469.39383160 Ry
     estimated scf accuracy    <       0.06059767 Ry

     iteration #  4     ecut=    80.00 Ry     beta= 0.70
     Davidson diagonalization with overlap
     ethr =  9.47E-05,  avg # of iterations =  5.2

     total cpu time spent up to now is       83.0 secs

     total energy              =    -469.45644479 Ry
     estimated scf accuracy    <       0.08472515 Ry

     iteration #  5     ecut=    80.00 Ry     beta= 0.70
     Davidson diagonalization with overlap
     ethr =  9.47E-05,  avg # of iterations =  2.0

     total cpu time spent up to now is       97.4 secs

     total energy              =    -469.44666772 Ry
     estimated scf accuracy    <       0.03205801 Ry

     iteration #  6     ecut=    80.00 Ry     beta= 0.70
     Davidson diagonalization with overlap
     ethr =  5.01E-05,  avg # of iterations =  2.0

     total cpu time spent up to now is      113.5 secs

     total energy              =    -469.45169365 Ry
     estimated scf accuracy    <       0.00137585 Ry

     iteration #  7     ecut=    80.00 Ry     beta= 0.70
     Davidson diagonalization with overlap
     ethr =  2.15E-06,  avg # of iterations =  5.6

     total cpu time spent up to now is      137.0 secs

     total energy              =    -469.45286951 Ry
     estimated scf accuracy    <       0.00006036 Ry

     iteration #  8     ecut=    80.00 Ry     beta= 0.70
     Davidson diagonalization with overlap
     ethr =  9.43E-08,  avg # of iterations =  5.7

     total cpu time spent up to now is      165.8 secs

     total energy              =    -469.45239002 Ry
     estimated scf accuracy    <       0.00185542 Ry

     iteration #  9     ecut=    80.00 Ry     beta= 0.70
     Davidson diagonalization with overlap
     ethr =  9.43E-08,  avg # of iterations =  5.0

     total cpu time spent up to now is      190.4 secs

     total energy              =    -469.45259379 Ry
     estimated scf accuracy    <       0.00007009 Ry

     iteration # 10     ecut=    80.00 Ry     beta= 0.70
     Davidson diagonalization with overlap
     ethr =  9.43E-08,  avg # of iterations =  2.9

     total cpu time spent up to now is      208.3 secs

     total energy              =    -469.45260755 Ry
     estimated scf accuracy    <       0.00000119 Ry

     iteration # 11     ecut=    80.00 Ry     beta= 0.70
     Davidson diagonalization with overlap
     ethr =  1.86E-09,  avg # of iterations =  6.5

     total cpu time spent up to now is      236.0 secs

     total energy              =    -469.45260927 Ry
     estimated scf accuracy    <       0.00000216 Ry

     iteration # 12     ecut=    80.00 Ry     beta= 0.70
     Davidson diagonalization with overlap
     ethr =  1.86E-09,  avg # of iterations =  2.0

     total cpu time spent up to now is      251.2 secs

     End of self-consistent calculation

     Number of k-points >= 100: set verbosity='high' to print the bands.

     highest occupied level (ev):     6.8511

!    total energy              =    -469.45260904 Ry
     estimated scf accuracy    <       0.00000046 Ry

     The total energy is the sum of the following terms:
     one-electron contribution =    -229.24153849 Ry
     hartree contribution      =     145.64859482 Ry
     xc contribution           =     -90.86031889 Ry
     ewald contribution        =    -294.99934647 Ry

     convergence has been achieved in  12 iterations

     Forces acting on atoms (cartesian axes, Ry/au):

     atom    1 type  1   force =    -0.01633404   -0.00082291   -0.00618457
     atom    2 type  1   force =    -0.03978159   -0.00266818   -0.00104654
     atom    3 type  1   force =    -0.01934326   -0.01503561    0.00034615
     atom    4 type  1   force =     0.01633404    0.00082291    0.00618457
     atom    5 type  1   force =     0.03978159    0.00266818    0.00104654
     atom    6 type  1   force =     0.01934326    0.01503561   -0.00034615
     atom    7 type  2   force =     0.00253143   -0.00141473   -0.00322579
     atom    8 type  2   force =    -0.00253143    0.00141473    0.00322579
     atom    9 type  3   force =     0.00038075    0.01119667   -0.00195784
     atom   10 type  3   force =    -0.00038075   -0.01119667    0.00195784

     Total force =     0.072733     Total SCF correction =     0.000976


     Computing stress (Cartesian axis) and pressure

          total   stress  (Ry/bohr**3)                   (kbar)     P=     -101.13
  -0.00135952  -0.00011558   0.00000388         -199.99      -17.00        0.57
  -0.00011558  -0.00032770  -0.00009608          -17.00      -48.21      -14.13
   0.00000388  -0.00009608  -0.00037517            0.57      -14.13      -55.19


     BFGS Geometry Optimization
     Energy error            =      0.0E+00 Ry
     Gradient error          =      4.0E-02 Ry/Bohr

     number of scf cycles    =   1
     number of bfgs steps    =   0

     energy             new  =    -469.4526090354 Ry

     new trust radius        =       0.0398846961 bohr
     new conv_thr            =       0.0000010000 Ry


ATOMIC_POSITIONS (angstrom)
O             7.1036459957        4.4089367626        0.8040663200
O             6.2776890803        3.9321920199        3.7851367228
O             7.9932706676        1.7634404227        2.2288520525
O             5.3421603783        1.4693845928        3.1606021069
O             6.1681172937        1.9461293356        0.1795317041
O             4.4525357064        4.1148809327        1.7358163744
Mg            4.4899449261        2.1192798933        1.4281587094
Mg            7.9558614479        3.7590414621        2.5365097175
Si            1.9659789521        0.9343880967        0.6251713394
Si           10.4798274219        4.9439332587        3.3394970875



     Writing config-only to output data dir ./Aknew_.save/
     NEW-OLD atomic charge density approx. for the potential

     Check: negative core charge=   -0.000002

     total cpu time spent up to now is      266.6 secs

     per-process dynamical memory:   154.7 Mb

     Self-consistent Calculation

     iteration #  1     ecut=    80.00 Ry     beta= 0.70
     Davidson diagonalization with overlap
     ethr =  1.00E-06,  avg # of iterations =  5.9

     total cpu time spent up to now is      296.9 secs

     total energy              =    -469.45610126 Ry
     estimated scf accuracy    <       0.00132348 Ry

     iteration #  2     ecut=    80.00 Ry     beta= 0.70
     Davidson diagonalization with overlap
     ethr =  2.07E-06,  avg # of iterations =  2.0

     total cpu time spent up to now is      312.3 secs

     total energy              =    -469.45651720 Ry
     estimated scf accuracy    <       0.00028946 Ry

     iteration #  3     ecut=    80.00 Ry     beta= 0.70
     Davidson diagonalization with overlap
     ethr =  4.52E-07,  avg # of iterations =  2.0

     total cpu time spent up to now is      328.4 secs

     total energy              =    -469.45657199 Ry
     estimated scf accuracy    <       0.00000442 Ry

     iteration #  4     ecut=    80.00 Ry     beta= 0.70
     Davidson diagonalization with overlap
     ethr =  6.91E-09,  avg # of iterations =  6.9

     total cpu time spent up to now is      358.6 secs

     total energy              =    -469.45657785 Ry
     estimated scf accuracy    <       0.00000171 Ry

     iteration #  5     ecut=    80.00 Ry     beta= 0.70
     Davidson diagonalization with overlap
     ethr =  2.67E-09,  avg # of iterations =  2.0

     total cpu time spent up to now is      374.7 secs

     End of self-consistent calculation

     Number of k-points >= 100: set verbosity='high' to print the bands.

     highest occupied level (ev):     6.8474

!    total energy              =    -469.45657806 Ry
     estimated scf accuracy    <       0.00000018 Ry

     The total energy is the sum of the following terms:
     one-electron contribution =    -228.96603623 Ry
     hartree contribution      =     145.47897108 Ry
     xc contribution           =     -90.89540961 Ry
     ewald contribution        =    -295.07410330 Ry

     convergence has been achieved in   5 iterations

     Forces acting on atoms (cartesian axes, Ry/au):

     atom    1 type  1   force =    -0.00899938    0.00262669   -0.00095360
     atom    2 type  1   force =    -0.02082183   -0.00124846   -0.00117680
     atom    3 type  1   force =    -0.01033561   -0.00343357    0.00276866
     atom    4 type  1   force =     0.00899938   -0.00262669    0.00095360
     atom    5 type  1   force =     0.02082183    0.00124846    0.00117680
     atom    6 type  1   force =     0.01033561    0.00343357   -0.00276866
     atom    7 type  2   force =     0.00451582   -0.00039388   -0.00168271
     atom    8 type  2   force =    -0.00451582    0.00039388    0.00168271
     atom    9 type  3   force =     0.00279747    0.00523448    0.00036486
     atom   10 type  3   force =    -0.00279747   -0.00523448   -0.00036486

     Total force =     0.037691     Total SCF correction =     0.001831


     Computing stress (Cartesian axis) and pressure

          total   stress  (Ry/bohr**3)                   (kbar)     P=      -92.97
  -0.00122991  -0.00007289   0.00002481         -180.93      -10.72        3.65
  -0.00007289  -0.00030885  -0.00009465          -10.72      -45.43      -13.92
   0.00002481  -0.00009465  -0.00035732            3.65      -13.92      -52.56

     Energy error            =      4.0E-03 Ry
     Gradient error          =      2.1E-02 Ry/Bohr

     number of scf cycles    =   2
     number of bfgs steps    =   1

     energy             old  =    -469.4526090354 Ry
     energy             new  =    -469.4565780637 Ry

     CASE: energy            _new < energy            _old

     new trust radius        =       0.0449761032 bohr
     new conv_thr            =       0.0000002082 Ry


ATOMIC_POSITIONS (angstrom)
O             7.0934330461        4.4116575641        0.8027769187
O             6.2539668511        3.9307564889        3.7838519096
O             7.9815141293        1.7591342411        2.2317763752
O             5.3523733279        1.4666637913        3.1618915082
O             6.1918395229        1.9475648666        0.1808165173
O             4.4642922447        4.1191871143        1.7328920517
Mg            4.4948061479        2.1188003357        1.4262410954
Mg            7.9510002261        3.7595210197        2.5384273315
Si            1.9689351448        0.9404073572        0.6254635066
Si           10.4768712292        4.9379139982        3.3392049203



     Writing config-only to output data dir ./Aknew_.save/
     NEW-OLD atomic charge density approx. for the potential

     Check: negative core charge=   -0.000002

     total cpu time spent up to now is      388.5 secs

     per-process dynamical memory:   154.7 Mb

     Self-consistent Calculation

     iteration #  1     ecut=    80.00 Ry     beta= 0.70
     Davidson diagonalization with overlap
     ethr =  1.00E-06,  avg # of iterations =  7.2

     total cpu time spent up to now is      423.7 secs

     total energy              =    -469.45767734 Ry
     estimated scf accuracy    <       0.00148645 Ry

     iteration #  2     ecut=    80.00 Ry     beta= 0.70
     Davidson diagonalization with overlap
     ethr =  2.32E-06,  avg # of iterations =  2.1

     total cpu time spent up to now is      439.9 secs

     total energy              =    -469.45811802 Ry
     estimated scf accuracy    <       0.00033614 Ry

     iteration #  3     ecut=    80.00 Ry     beta= 0.70
     Davidson diagonalization with overlap
     ethr =  5.25E-07,  avg # of iterations =  2.0

     total cpu time spent up to now is      455.7 secs

     total energy              =    -469.45818400 Ry
     estimated scf accuracy    <       0.00000630 Ry

     iteration #  4     ecut=    80.00 Ry     beta= 0.70
     Davidson diagonalization with overlap
     ethr =  9.84E-09,  avg # of iterations =  5.3

     total cpu time spent up to now is      479.7 secs

     total energy              =    -469.45818818 Ry
     estimated scf accuracy    <       0.00000151 Ry

     iteration #  5     ecut=    80.00 Ry     beta= 0.70
     Davidson diagonalization with overlap
     ethr =  2.36E-09,  avg # of iterations =  2.9

     total cpu time spent up to now is      498.9 secs

     End of self-consistent calculation

     Number of k-points >= 100: set verbosity='high' to print the bands.

     highest occupied level (ev):     6.8473

!    total energy              =    -469.45818852 Ry
     estimated scf accuracy    <       0.00000016 Ry

     The total energy is the sum of the following terms:
     one-electron contribution =    -228.81372767 Ry
     hartree contribution      =     145.37786647 Ry
     xc contribution           =     -90.93261332 Ry
     ewald contribution        =    -295.08971401 Ry

     convergence has been achieved in   5 iterations

     Forces acting on atoms (cartesian axes, Ry/au):

     atom    1 type  1   force =    -0.00179050    0.00518301    0.00304011
     atom    2 type  1   force =     0.00124305    0.00062563   -0.00135330
     atom    3 type  1   force =    -0.00173566    0.00562501    0.00429554
     atom    4 type  1   force =     0.00179050   -0.00518301   -0.00304011
     atom    5 type  1   force =    -0.00124305   -0.00062563    0.00135330
     atom    6 type  1   force =     0.00173566   -0.00562501   -0.00429554
     atom    7 type  2   force =     0.00617582    0.00039999    0.00048023
     atom    8 type  2   force =    -0.00617582   -0.00039999   -0.00048023
     atom    9 type  3   force =     0.00478736   -0.00166105    0.00222832
     atom   10 type  3   force =    -0.00478736    0.00166105   -0.00222832

     Total force =     0.018186     Total SCF correction =     0.001088


     Computing stress (Cartesian axis) and pressure

          total   stress  (Ry/bohr**3)                   (kbar)     P=      -82.61
  -0.00106965  -0.00003364   0.00004164         -157.35       -4.95        6.12
  -0.00003364  -0.00028728  -0.00010162           -4.95      -42.26      -14.95
   0.00004164  -0.00010162  -0.00032769            6.12      -14.95      -48.20

     Energy error            =      1.6E-03 Ry
     Gradient error          =      6.2E-03 Ry/Bohr

     number of scf cycles    =   3
     number of bfgs steps    =   2

     energy             old  =    -469.4565780637 Ry
     energy             new  =    -469.4581885217 Ry

     CASE: energy            _new < energy            _old

     new trust radius        =       0.0081141663 bohr
     new conv_thr            =       0.0000000618 Ry


ATOMIC_POSITIONS (angstrom)
O             7.0910696185        4.4147098992        0.8041389185
O             6.2514207220        3.9308994290        3.7829646489
O             7.9789537945        1.7613772241        2.2343937603
O             5.3547367555        1.4636114562        3.1605295084
O             6.1943856520        1.9474219265        0.1817037780
O             4.4668525795        4.1169441313        1.7302746666
Mg            4.4986959352        2.1189339804        1.4262469420
Mg            7.9471104388        3.7593873750        2.5384214849
Si            1.9718307816        0.9403457042        0.6266506661
Si           10.4739755924        4.9379756512        3.3380177608



     Writing config-only to output data dir ./Aknew_.save/
     NEW-OLD atomic charge density approx. for the potential

     Check: negative core charge=   -0.000002

     total cpu time spent up to now is      512.7 secs

     per-process dynamical memory:   154.7 Mb

     Self-consistent Calculation

     iteration #  1     ecut=    80.00 Ry     beta= 0.70
     Davidson diagonalization with overlap
     ethr =  1.00E-06,  avg # of iterations =  7.0

     Threshold (ethr) on eigenvalues was too large:
     Diagonalizing with lowered threshold

     Davidson diagonalization with overlap
     ethr =  5.75E-08,  avg # of iterations =  3.2

     total cpu time spent up to now is      557.0 secs

     total energy              =    -469.45848821 Ry
     estimated scf accuracy    <       0.00004232 Ry

     iteration #  2     ecut=    80.00 Ry     beta= 0.70
     Davidson diagonalization with overlap
     ethr =  6.61E-08,  avg # of iterations =  2.0

     total cpu time spent up to now is      573.4 secs

     total energy              =    -469.45849447 Ry
     estimated scf accuracy    <       0.00000287 Ry

     iteration #  3     ecut=    80.00 Ry     beta= 0.70
     Davidson diagonalization with overlap
     ethr =  4.49E-09,  avg # of iterations =  3.7

     total cpu time spent up to now is      592.6 secs

     total energy              =    -469.45849513 Ry
     estimated scf accuracy    <       0.00000107 Ry

     iteration #  4     ecut=    80.00 Ry     beta= 0.70
     Davidson diagonalization with overlap
     ethr =  1.68E-09,  avg # of iterations =  3.3

     total cpu time spent up to now is      610.4 secs

     total energy              =    -469.45849541 Ry
     estimated scf accuracy    <       0.00000010 Ry

     iteration #  5     ecut=    80.00 Ry     beta= 0.70
     Davidson diagonalization with overlap
     ethr =  1.55E-10,  avg # of iterations =  4.1

     total cpu time spent up to now is      629.1 secs

     End of self-consistent calculation

     Number of k-points >= 100: set verbosity='high' to print the bands.

     highest occupied level (ev):     6.8526

!    total energy              =    -469.45849543 Ry
     estimated scf accuracy    <          7.5E-09 Ry

     The total energy is the sum of the following terms:
     one-electron contribution =    -228.81121475 Ry
     hartree contribution      =     145.37679515 Ry
     xc contribution           =     -90.93419099 Ry
     ewald contribution        =    -295.08988484 Ry

     convergence has been achieved in   5 iterations

     Forces acting on atoms (cartesian axes, Ry/au):

     atom    1 type  1   force =    -0.00124124    0.00441330    0.00248145
     atom    2 type  1   force =     0.00260615    0.00097418   -0.00098445
     atom    3 type  1   force =    -0.00131169    0.00455150    0.00334329
     atom    4 type  1   force =     0.00124124   -0.00441330   -0.00248145
     atom    5 type  1   force =    -0.00260615   -0.00097418    0.00098445
     atom    6 type  1   force =     0.00131169   -0.00455150   -0.00334329
     atom    7 type  2   force =     0.00571158    0.00038892    0.00063298
     atom    8 type  2   force =    -0.00571158   -0.00038892   -0.00063298
     atom    9 type  3   force =     0.00395913   -0.00138861    0.00170726
     atom   10 type  3   force =    -0.00395913    0.00138861   -0.00170726

     Total force =     0.015697     Total SCF correction =     0.000362


     Computing stress (Cartesian axis) and pressure

          total   stress  (Ry/bohr**3)                   (kbar)     P=      -82.37
  -0.00105516  -0.00003130   0.00004061         -155.22       -4.60        5.97
  -0.00003130  -0.00029603  -0.00010647           -4.60      -43.55      -15.66
   0.00004061  -0.00010647  -0.00032853            5.97      -15.66      -48.33

     Energy error            =      3.1E-04 Ry
     Gradient error          =      5.7E-03 Ry/Bohr

     number of scf cycles    =   4
     number of bfgs steps    =   3

     energy             old  =    -469.4581885217 Ry
     energy             new  =    -469.4584954326 Ry

     CASE: energy            _new < energy            _old

     new trust radius        =       0.0089255829 bohr
     new conv_thr            =       0.0000000307 Ry


ATOMIC_POSITIONS (angstrom)
O             7.0888065415        4.4182109056        0.8057120954
O             6.2502036519        3.9314034478        3.7820738420
O             7.9764321052        1.7639981507        2.2371701114
O             5.3569998325        1.4601104498        3.1589563315
O             6.1956027221        1.9469179077        0.1825945849
O             4.4693742688        4.1143232047        1.7274983155
Mg            4.5034098188        2.1191385826        1.4264618830
Mg            7.9423965552        3.7591827728        2.5382065439
Si            1.9750621355        0.9400987291        0.6279118365
Si           10.4707442385        4.9382226263        3.3367565904



     Writing config-only to output data dir ./Aknew_.save/
     NEW-OLD atomic charge density approx. for the potential

     Check: negative core charge=   -0.000002

     total cpu time spent up to now is      644.4 secs

     per-process dynamical memory:   154.7 Mb

     Self-consistent Calculation

     iteration #  1     ecut=    80.00 Ry     beta= 0.70
     Davidson diagonalization with overlap
     ethr =  1.00E-06,  avg # of iterations =  7.0

     Threshold (ethr) on eigenvalues was too large:
     Diagonalizing with lowered threshold

     Davidson diagonalization with overlap
     ethr =  6.13E-08,  avg # of iterations =  2.2

     total cpu time spent up to now is      688.4 secs

     total energy              =    -469.45877855 Ry
     estimated scf accuracy    <       0.00004436 Ry

     iteration #  2     ecut=    80.00 Ry     beta= 0.70
     Davidson diagonalization with overlap
     ethr =  6.93E-08,  avg # of iterations =  2.0

     total cpu time spent up to now is      704.5 secs

     total energy              =    -469.45878495 Ry
     estimated scf accuracy    <       0.00000312 Ry

     iteration #  3     ecut=    80.00 Ry     beta= 0.70
     Davidson diagonalization with overlap
     ethr =  4.87E-09,  avg # of iterations =  3.6

     total cpu time spent up to now is      723.8 secs

     total energy              =    -469.45878560 Ry
     estimated scf accuracy    <       0.00000153 Ry

     iteration #  4     ecut=    80.00 Ry     beta= 0.70
     Davidson diagonalization with overlap
     ethr =  2.39E-09,  avg # of iterations =  3.3

     total cpu time spent up to now is      741.9 secs

     total energy              =    -469.45878599 Ry
     estimated scf accuracy    <       0.00000009 Ry

     iteration #  5     ecut=    80.00 Ry     beta= 0.70
     Davidson diagonalization with overlap
     ethr =  1.48E-10,  avg # of iterations =  4.3

     total cpu time spent up to now is      760.4 secs

     End of self-consistent calculation

     Number of k-points >= 100: set verbosity='high' to print the bands.

     highest occupied level (ev):     6.8575

!    total energy              =    -469.45878601 Ry
     estimated scf accuracy    <          6.7E-09 Ry

     The total energy is the sum of the following terms:
     one-electron contribution =    -228.81377813 Ry
     hartree contribution      =     145.38041190 Ry
     xc contribution           =     -90.93438576 Ry
     ewald contribution        =    -295.09103402 Ry

     convergence has been achieved in   5 iterations

     Forces acting on atoms (cartesian axes, Ry/au):

     atom    1 type  1   force =    -0.00090243    0.00327322    0.00162809
     atom    2 type  1   force =     0.00246419    0.00114642   -0.00047396
     atom    3 type  1   force =    -0.00121590    0.00306328    0.00218293
     atom    4 type  1   force =     0.00090243   -0.00327322   -0.00162809
     atom    5 type  1   force =    -0.00246419   -0.00114642    0.00047396
     atom    6 type  1   force =     0.00121590   -0.00306328   -0.00218293
     atom    7 type  2   force =     0.00517747    0.00025833    0.00049814
     atom    8 type  2   force =    -0.00517747   -0.00025833   -0.00049814
     atom    9 type  3   force =     0.00285666   -0.00078490    0.00117240
     atom   10 type  3   force =    -0.00285666    0.00078490   -0.00117240

     Total force =     0.012222     Total SCF correction =     0.000137


     Computing stress (Cartesian axis) and pressure

          total   stress  (Ry/bohr**3)                   (kbar)     P=      -82.41
  -0.00104606  -0.00003074   0.00003918         -153.88       -4.52        5.76
  -0.00003074  -0.00030519  -0.00011140           -4.52      -44.89      -16.39
   0.00003918  -0.00011140  -0.00032933            5.76      -16.39      -48.45

     Energy error            =      2.9E-04 Ry
     Gradient error          =      5.2E-03 Ry/Bohr

     number of scf cycles    =   5
     number of bfgs steps    =   4

     energy             old  =    -469.4584954326 Ry
     energy             new  =    -469.4587860146 Ry

     CASE: energy            _new < energy            _old

     new trust radius        =       0.0133883744 bohr
     new conv_thr            =       0.0000000291 Ry


ATOMIC_POSITIONS (angstrom)
O             7.0858081187        4.4228553778        0.8076143274
O             6.2489944333        3.9324310446        3.7811135488
O             7.9728624981        1.7672070189        2.2406022331
O             5.3599982553        1.4554659776        3.1570540995
O             6.1968119407        1.9458903109        0.1835548781
O             4.4729438759        4.1111143365        1.7240661938
Mg            4.5104841088        2.1193809584        1.4267625273
Mg            7.9353222652        3.7589403970        2.5379058996
Si            1.9792828467        0.9399888729        0.6295096632
Si           10.4665235273        4.9383324825        3.3351587637



     Writing config-only to output data dir ./Aknew_.save/
     NEW-OLD atomic charge density approx. for the potential

     Check: negative core charge=   -0.000002

     total cpu time spent up to now is      774.8 secs

     per-process dynamical memory:   154.7 Mb

     Self-consistent Calculation

     iteration #  1     ecut=    80.00 Ry     beta= 0.70
     Davidson diagonalization with overlap
     ethr =  1.00E-06,  avg # of iterations =  7.0

     total cpu time spent up to now is      804.7 secs

     total energy              =    -469.45905310 Ry
     estimated scf accuracy    <       0.00006983 Ry

     iteration #  2     ecut=    80.00 Ry     beta= 0.70
     Davidson diagonalization with overlap
     ethr =  1.09E-07,  avg # of iterations =  2.2

     total cpu time spent up to now is      821.7 secs

     total energy              =    -469.45906600 Ry
     estimated scf accuracy    <       0.00000604 Ry

     iteration #  3     ecut=    80.00 Ry     beta= 0.70
     Davidson diagonalization with overlap
     ethr =  9.44E-09,  avg # of iterations =  3.4

     total cpu time spent up to now is      840.6 secs

     total energy              =    -469.45906757 Ry
     estimated scf accuracy    <       0.00000283 Ry

     iteration #  4     ecut=    80.00 Ry     beta= 0.70
     Davidson diagonalization with overlap
     ethr =  4.43E-09,  avg # of iterations =  3.5

     total cpu time spent up to now is      858.1 secs

     total energy              =    -469.45906828 Ry
     estimated scf accuracy    <       0.00000013 Ry

     iteration #  5     ecut=    80.00 Ry     beta= 0.70
     Davidson diagonalization with overlap
     ethr =  2.09E-10,  avg # of iterations =  4.5

     total cpu time spent up to now is      878.9 secs

     End of self-consistent calculation

     Number of k-points >= 100: set verbosity='high' to print the bands.

     highest occupied level (ev):     6.8637

!    total energy              =    -469.45906833 Ry
     estimated scf accuracy    <       0.00000001 Ry

     The total energy is the sum of the following terms:
     one-electron contribution =    -228.81800862 Ry
     hartree contribution      =     145.38615939 Ry
     xc contribution           =     -90.93508727 Ry
     ewald contribution        =    -295.09213183 Ry

     convergence has been achieved in   5 iterations

     Forces acting on atoms (cartesian axes, Ry/au):

     atom    1 type  1   force =    -0.00032923    0.00172243    0.00059547
     atom    2 type  1   force =     0.00187344    0.00122116    0.00020330
     atom    3 type  1   force =    -0.00099717    0.00139918    0.00076071
     atom    4 type  1   force =     0.00032923   -0.00172243   -0.00059547
     atom    5 type  1   force =    -0.00187344   -0.00122116   -0.00020330
     atom    6 type  1   force =     0.00099717   -0.00139918   -0.00076071
     atom    7 type  2   force =     0.00432291    0.00018568    0.00037097
     atom    8 type  2   force =    -0.00432291   -0.00018568   -0.00037097
     atom    9 type  3   force =     0.00138694   -0.00009033    0.00066578
     atom   10 type  3   force =    -0.00138694    0.00009033   -0.00066578

     Total force =     0.008153     Total SCF correction =     0.000161


     Computing stress (Cartesian axis) and pressure

          total   stress  (Ry/bohr**3)                   (kbar)     P=      -82.22
  -0.00103257  -0.00003029   0.00003762         -151.90       -4.46        5.53
  -0.00003029  -0.00031578  -0.00011823           -4.46      -46.45      -17.39
   0.00003762  -0.00011823  -0.00032844            5.53      -17.39      -48.32

     Energy error            =      2.8E-04 Ry
     Gradient error          =      4.3E-03 Ry/Bohr

     number of scf cycles    =   6
     number of bfgs steps    =   5

     energy             old  =    -469.4587860146 Ry
     energy             new  =    -469.4590683255 Ry

     CASE: energy            _new < energy            _old

     new trust radius        =       0.0200825616 bohr
     new conv_thr            =       0.0000000282 Ry


ATOMIC_POSITIONS (angstrom)
O             7.0820596016        4.4287667078        0.8097612915
O             6.2477432131        3.9343186637        3.7803366873
O             7.9678681978        1.7710557838        2.2446092728
O             5.3637467724        1.4495546476        3.1549071354
O             6.1980631609        1.9440026918        0.1843317396
O             4.4779381762        4.1072655716        1.7200591541
Mg            4.5210950980        2.1197375986        1.4272292350
Mg            7.9247112760        3.7585837568        2.5374391919
Si            1.9845495344        0.9402181357        0.6316122499
Si           10.4612568396        4.9381032197        3.3330561770



     Writing config-only to output data dir ./Aknew_.save/
     NEW-OLD atomic charge density approx. for the potential

     Check: negative core charge=   -0.000002

     total cpu time spent up to now is      892.5 secs

     per-process dynamical memory:   154.7 Mb

     Self-consistent Calculation

     iteration #  1     ecut=    80.00 Ry     beta= 0.70
     Davidson diagonalization with overlap
     ethr =  1.00E-06,  avg # of iterations =  8.7

     total cpu time spent up to now is      924.7 secs

     total energy              =    -469.45924178 Ry
     estimated scf accuracy    <       0.00011333 Ry

     iteration #  2     ecut=    80.00 Ry     beta= 0.70
     Davidson diagonalization with overlap
     ethr =  1.77E-07,  avg # of iterations =  2.0

     total cpu time spent up to now is      940.8 secs

     total energy              =    -469.45926128 Ry
     estimated scf accuracy    <       0.00000918 Ry

     iteration #  3     ecut=    80.00 Ry     beta= 0.70
     Davidson diagonalization with overlap
     ethr =  1.43E-08,  avg # of iterations =  3.5

     total cpu time spent up to now is      959.4 secs

     total energy              =    -469.45926351 Ry
     estimated scf accuracy    <       0.00000420 Ry

     iteration #  4     ecut=    80.00 Ry     beta= 0.70
     Davidson diagonalization with overlap
     ethr =  6.55E-09,  avg # of iterations =  3.3

     total cpu time spent up to now is      977.4 secs

     total energy              =    -469.45926458 Ry
     estimated scf accuracy    <       0.00000023 Ry

     iteration #  5     ecut=    80.00 Ry     beta= 0.70
     Davidson diagonalization with overlap
     ethr =  3.54E-10,  avg # of iterations =  4.4

     total cpu time spent up to now is      997.7 secs

     End of self-consistent calculation

     Number of k-points >= 100: set verbosity='high' to print the bands.

     highest occupied level (ev):     6.8711

!    total energy              =    -469.45926465 Ry
     estimated scf accuracy    <       0.00000002 Ry

     The total energy is the sum of the following terms:
     one-electron contribution =    -228.82556878 Ry
     hartree contribution      =     145.39535184 Ry
     xc contribution           =     -90.93694772 Ry
     ewald contribution        =    -295.09209998 Ry

     convergence has been achieved in   5 iterations

     Forces acting on atoms (cartesian axes, Ry/au):

     atom    1 type  1   force =     0.00053322   -0.00022434   -0.00058705
     atom    2 type  1   force =     0.00082216    0.00109111    0.00099153
     atom    3 type  1   force =    -0.00059798   -0.00040429   -0.00085933
     atom    4 type  1   force =    -0.00053322    0.00022434    0.00058705
     atom    5 type  1   force =    -0.00082216   -0.00109111   -0.00099153
     atom    6 type  1   force =     0.00059798    0.00040429    0.00085933
     atom    7 type  2   force =     0.00297627    0.00016881    0.00022156
     atom    8 type  2   force =    -0.00297627   -0.00016881   -0.00022156
     atom    9 type  3   force =    -0.00042802    0.00062118    0.00013991
     atom   10 type  3   force =     0.00042802   -0.00062118   -0.00013991

     Total force =     0.005350     Total SCF correction =     0.000301


     Computing stress (Cartesian axis) and pressure

          total   stress  (Ry/bohr**3)                   (kbar)     P=      -81.57
  -0.00101168  -0.00002993   0.00003572         -148.82       -4.40        5.25
  -0.00002993  -0.00032781  -0.00012772           -4.40      -48.22      -18.79
   0.00003572  -0.00012772  -0.00032411            5.25      -18.79      -47.68

     Energy error            =      2.0E-04 Ry
     Gradient error          =      3.0E-03 Ry/Bohr

     number of scf cycles    =   7
     number of bfgs steps    =   6

     energy             old  =    -469.4590683255 Ry
     energy             new  =    -469.4592646458 Ry

     CASE: energy            _new < energy            _old

     new trust radius        =       0.0118942615 bohr
     new conv_thr            =       0.0000000196 Ry


ATOMIC_POSITIONS (angstrom)
O             7.0807730437        4.4311040316        0.8102996251
O             6.2474291384        3.9357270883        3.7806168844
O             7.9653359388        1.7724402075        2.2457988108
O             5.3650333303        1.4472173238        3.1543688018
O             6.1983772356        1.9425942672        0.1840515425
O             4.4804704352        4.1058811479        1.7188696161
Mg            4.5273759608        2.1200014194        1.4275419087
Mg            7.9184304132        3.7583199360        2.5371265182
Si            1.9865036031        0.9407211327        0.6326172070
Si           10.4593027709        4.9376002227        3.3320512199



     Writing config-only to output data dir ./Aknew_.save/
     NEW-OLD atomic charge density approx. for the potential

     Check: negative core charge=   -0.000002

     total cpu time spent up to now is     1013.1 secs

     per-process dynamical memory:   154.7 Mb

     Self-consistent Calculation

     iteration #  1     ecut=    80.00 Ry     beta= 0.70
     Davidson diagonalization with overlap
     ethr =  1.00E-06,  avg # of iterations =  7.0

     Threshold (ethr) on eigenvalues was too large:
     Diagonalizing with lowered threshold

     Davidson diagonalization with overlap
     ethr =  2.73E-08,  avg # of iterations =  2.7

     total cpu time spent up to now is     1056.5 secs

     total energy              =    -469.45930773 Ry
     estimated scf accuracy    <       0.00002024 Ry

     iteration #  2     ecut=    80.00 Ry     beta= 0.70
     Davidson diagonalization with overlap
     ethr =  3.16E-08,  avg # of iterations =  2.0

     total cpu time spent up to now is     1072.6 secs

     total energy              =    -469.45931088 Ry
     estimated scf accuracy    <       0.00000207 Ry

     iteration #  3     ecut=    80.00 Ry     beta= 0.70
     Davidson diagonalization with overlap
     ethr =  3.23E-09,  avg # of iterations =  3.8

     total cpu time spent up to now is     1092.7 secs

     total energy              =    -469.45931141 Ry
     estimated scf accuracy    <       0.00000076 Ry

     iteration #  4     ecut=    80.00 Ry     beta= 0.70
     Davidson diagonalization with overlap
     ethr =  1.18E-09,  avg # of iterations =  3.4

     total cpu time spent up to now is     1110.7 secs

     total energy              =    -469.45931160 Ry
     estimated scf accuracy    <       0.00000005 Ry

     iteration #  5     ecut=    80.00 Ry     beta= 0.70
     Davidson diagonalization with overlap
     ethr =  7.08E-11,  avg # of iterations =  4.3

     total cpu time spent up to now is     1130.2 secs

     End of self-consistent calculation

     Number of k-points >= 100: set verbosity='high' to print the bands.

     highest occupied level (ev):     6.8732

!    total energy              =    -469.45931161 Ry
     estimated scf accuracy    <          5.2E-09 Ry

     The total energy is the sum of the following terms:
     one-electron contribution =    -228.81930696 Ry
     hartree contribution      =     145.39563709 Ry
     xc contribution           =     -90.93860339 Ry
     ewald contribution        =    -295.09703834 Ry

     convergence has been achieved in   5 iterations

     Forces acting on atoms (cartesian axes, Ry/au):

     atom    1 type  1   force =     0.00080544   -0.00092288   -0.00100805
     atom    2 type  1   force =     0.00020459    0.00080509    0.00117506
     atom    3 type  1   force =    -0.00032752   -0.00084761   -0.00129528
     atom    4 type  1   force =    -0.00080544    0.00092288    0.00100805
     atom    5 type  1   force =    -0.00020459   -0.00080509   -0.00117506
     atom    6 type  1   force =     0.00032752    0.00084761    0.00129528
     atom    7 type  2   force =     0.00200960    0.00022807    0.00014466
     atom    8 type  2   force =    -0.00200960   -0.00022807   -0.00014466
     atom    9 type  3   force =    -0.00091551    0.00060804   -0.00009674
     atom   10 type  3   force =     0.00091551   -0.00060804    0.00009674

     Total force =     0.004984     Total SCF correction =     0.000127


     Computing stress (Cartesian axis) and pressure

          total   stress  (Ry/bohr**3)                   (kbar)     P=      -80.91
  -0.00100003  -0.00002937   0.00003487         -147.11       -4.32        5.13
  -0.00002937  -0.00033149  -0.00013284           -4.32      -48.76      -19.54
   0.00003487  -0.00013284  -0.00031856            5.13      -19.54      -46.86

     Energy error            =      4.7E-05 Ry
     Gradient error          =      2.0E-03 Ry/Bohr

     number of scf cycles    =   8
     number of bfgs steps    =   7

     energy             old  =    -469.4592646458 Ry
     energy             new  =    -469.4593116123 Ry

     CASE: energy            _new < energy            _old

     new trust radius        =       0.0101120070 bohr
     new conv_thr            =       0.0000000100 Ry


ATOMIC_POSITIONS (angstrom)
O             7.0806208848        4.4319302096        0.8099655717
O             6.2474762980        3.9371519610        3.7816239490
O             7.9636170059        1.7728584408        2.2456661832
O             5.3651854892        1.4463911458        3.1547028552
O             6.1983300760        1.9411693945        0.1830444779
O             4.4821893681        4.1054629146        1.7190022437
Mg            4.5327062961        2.1203544061        1.4278527052
Mg            7.9131000779        3.7579669493        2.5368157217
Si            1.9871139124        0.9413662108        0.6332140861
Si           10.4586924616        4.9369551446        3.3314543408



     Writing config-only to output data dir ./Aknew_.save/
     NEW-OLD atomic charge density approx. for the potential

     Check: negative core charge=   -0.000002

     total cpu time spent up to now is     1144.0 secs

     per-process dynamical memory:   154.7 Mb

     Self-consistent Calculation

     iteration #  1     ecut=    80.00 Ry     beta= 0.70
     Davidson diagonalization with overlap
     ethr =  1.00E-06,  avg # of iterations =  6.0

     Threshold (ethr) on eigenvalues was too large:
     Diagonalizing with lowered threshold

     Davidson diagonalization with overlap
     ethr =  9.01E-09,  avg # of iterations =  3.5

     total cpu time spent up to now is     1188.3 secs

     total energy              =    -469.45934617 Ry
     estimated scf accuracy    <       0.00000674 Ry

     iteration #  2     ecut=    80.00 Ry     beta= 0.70
     Davidson diagonalization with overlap
     ethr =  1.05E-08,  avg # of iterations =  2.0

     total cpu time spent up to now is     1203.3 secs

     total energy              =    -469.45934733 Ry
     estimated scf accuracy    <       0.00000078 Ry

     iteration #  3     ecut=    80.00 Ry     beta= 0.70
     Davidson diagonalization with overlap
     ethr =  1.22E-09,  avg # of iterations =  3.7

     total cpu time spent up to now is     1221.7 secs

     total energy              =    -469.45934755 Ry
     estimated scf accuracy    <       0.00000017 Ry

     iteration #  4     ecut=    80.00 Ry     beta= 0.70
     Davidson diagonalization with overlap
     ethr =  2.66E-10,  avg # of iterations =  3.7

     total cpu time spent up to now is     1238.9 secs

     total energy              =    -469.45934759 Ry
     estimated scf accuracy    <       0.00000001 Ry

     iteration #  5     ecut=    80.00 Ry     beta= 0.70
     Davidson diagonalization with overlap
     ethr =  1.98E-11,  avg # of iterations =  4.4

     total cpu time spent up to now is     1258.6 secs

     End of self-consistent calculation

     Number of k-points >= 100: set verbosity='high' to print the bands.

     highest occupied level (ev):     6.8733

!    total energy              =    -469.45934760 Ry
     estimated scf accuracy    <          2.2E-09 Ry

     The total energy is the sum of the following terms:
     one-electron contribution =    -228.79757656 Ry
     hartree contribution      =     145.38762141 Ry
     xc contribution           =     -90.94032073 Ry
     ewald contribution        =    -295.10907172 Ry

     convergence has been achieved in   5 iterations

     Forces acting on atoms (cartesian axes, Ry/au):

     atom    1 type  1   force =     0.00073179   -0.00104289   -0.00105168
     atom    2 type  1   force =    -0.00018935    0.00038641    0.00099376
     atom    3 type  1   force =    -0.00010866   -0.00076114   -0.00116094
     atom    4 type  1   force =    -0.00073179    0.00104289    0.00105168
     atom    5 type  1   force =     0.00018935   -0.00038641   -0.00099376
     atom    6 type  1   force =     0.00010866    0.00076114    0.00116094
     atom    7 type  2   force =     0.00109995    0.00032977    0.00007296
     atom    8 type  2   force =    -0.00109995   -0.00032977   -0.00007296
     atom    9 type  3   force =    -0.00078539    0.00027740   -0.00022590
     atom   10 type  3   force =     0.00078539   -0.00027740    0.00022590

     Total force =     0.003977     Total SCF correction =     0.000094


     Computing stress (Cartesian axis) and pressure

          total   stress  (Ry/bohr**3)                   (kbar)     P=      -80.23
  -0.00099236  -0.00002819   0.00003435         -145.98       -4.15        5.05
  -0.00002819  -0.00033222  -0.00013639           -4.15      -48.87      -20.06
   0.00003435  -0.00013639  -0.00031168            5.05      -20.06      -45.85

     Energy error            =      3.6E-05 Ry
     Gradient error          =      1.2E-03 Ry/Bohr

     number of scf cycles    =   9
     number of bfgs steps    =   8

     energy             old  =    -469.4593116123 Ry
     energy             new  =    -469.4593475980 Ry

     CASE: energy            _new < energy            _old

     new trust radius        =       0.0099479363 bohr
     new conv_thr            =       0.0000000100 Ry


ATOMIC_POSITIONS (angstrom)
O             7.0814478780        4.4314869449        0.8086959448
O             6.2477515971        3.9386791835        3.7834379510
O             7.9623973301        1.7725475586        2.2443536574
O             5.3643584960        1.4468344105        3.1559724821
O             6.1980547769        1.9396421720        0.1812304759
O             4.4834090439        4.1057737968        1.7203147695
Mg            4.5379222461        2.1209753276        1.4281996146
Mg            7.9078841279        3.7573460278        2.5364688123
Si            1.9867464669        0.9420406454        0.6334748110
Si           10.4590599071        4.9362807100        3.3311936159



     Writing config-only to output data dir ./Aknew_.save/
     NEW-OLD atomic charge density approx. for the potential

     Check: negative core charge=   -0.000002

     total cpu time spent up to now is     1272.3 secs

     per-process dynamical memory:   154.7 Mb

     Self-consistent Calculation

     iteration #  1     ecut=    80.00 Ry     beta= 0.70
     Davidson diagonalization with overlap
     ethr =  1.00E-06,  avg # of iterations =  6.2

     Threshold (ethr) on eigenvalues was too large:
     Diagonalizing with lowered threshold

     Davidson diagonalization with overlap
     ethr =  1.46E-08,  avg # of iterations =  3.9

     total cpu time spent up to now is     1316.0 secs

     total energy              =    -469.45937572 Ry
     estimated scf accuracy    <       0.00001095 Ry

     iteration #  2     ecut=    80.00 Ry     beta= 0.70
     Davidson diagonalization with overlap
     ethr =  1.71E-08,  avg # of iterations =  2.0

     total cpu time spent up to now is     1331.1 secs

     total energy              =    -469.45937767 Ry
     estimated scf accuracy    <       0.00000076 Ry

     iteration #  3     ecut=    80.00 Ry     beta= 0.70
     Davidson diagonalization with overlap
     ethr =  1.19E-09,  avg # of iterations =  3.9

     total cpu time spent up to now is     1349.6 secs

     total energy              =    -469.45937791 Ry
     estimated scf accuracy    <       0.00000013 Ry

     iteration #  4     ecut=    80.00 Ry     beta= 0.70
     Davidson diagonalization with overlap
     ethr =  1.99E-10,  avg # of iterations =  3.8

     total cpu time spent up to now is     1367.8 secs

     total energy              =    -469.45937795 Ry
     estimated scf accuracy    <       0.00000001 Ry

     iteration #  5     ecut=    80.00 Ry     beta= 0.70
     Davidson diagonalization with overlap
     ethr =  1.60E-11,  avg # of iterations =  4.2

     total cpu time spent up to now is     1388.0 secs

     End of self-consistent calculation

     Number of k-points >= 100: set verbosity='high' to print the bands.

     highest occupied level (ev):     6.8722

!    total energy              =    -469.45937795 Ry
     estimated scf accuracy    <          2.7E-09 Ry

     The total energy is the sum of the following terms:
     one-electron contribution =    -228.75688784 Ry
     hartree contribution      =     145.36991308 Ry
     xc contribution           =     -90.94240334 Ry
     ewald contribution        =    -295.12999985 Ry

     convergence has been achieved in   5 iterations

     Forces acting on atoms (cartesian axes, Ry/au):

     atom    1 type  1   force =     0.00036306   -0.00061299   -0.00063482
     atom    2 type  1   force =    -0.00033611   -0.00014559    0.00041670
     atom    3 type  1   force =     0.00008294   -0.00030356   -0.00049800
     atom    4 type  1   force =    -0.00036306    0.00061299    0.00063482
     atom    5 type  1   force =     0.00033611    0.00014559   -0.00041670
     atom    6 type  1   force =    -0.00008294    0.00030356    0.00049800
     atom    7 type  2   force =     0.00011669    0.00043291   -0.00000551
     atom    8 type  2   force =    -0.00011669   -0.00043291    0.00000551
     atom    9 type  3   force =    -0.00020867   -0.00017688   -0.00022089
     atom   10 type  3   force =     0.00020867    0.00017688    0.00022089

     Total force =     0.001944     Total SCF correction =     0.000094


     Computing stress (Cartesian axis) and pressure

          total   stress  (Ry/bohr**3)                   (kbar)     P=      -79.44
  -0.00098717  -0.00002614   0.00003414         -145.22       -3.84        5.02
  -0.00002614  -0.00033018  -0.00013840           -3.84      -48.57      -20.36
   0.00003414  -0.00013840  -0.00030263            5.02      -20.36      -44.52

     Energy error            =      3.0E-05 Ry
     Gradient error          =      6.3E-04 Ry/Bohr

     bfgs converged in  10 scf cycles and   9 bfgs steps
     (criteria: energy <  1.0E-04 Ry, force <  1.0E-03 Ry/Bohr)

     End of BFGS Geometry Optimization

     Final energy             =    -469.4593779493 Ry

     File ./Aknew_.bfgs deleted, as requested
Begin final coordinates

ATOMIC_POSITIONS (angstrom)
O             7.0814478780        4.4314869449        0.8086959448
O             6.2477515971        3.9386791835        3.7834379510
O             7.9623973301        1.7725475586        2.2443536574
O             5.3643584960        1.4468344105        3.1559724821
O             6.1980547769        1.9396421720        0.1812304759
O             4.4834090439        4.1057737968        1.7203147695
Mg            4.5379222461        2.1209753276        1.4281996146
Mg            7.9078841279        3.7573460278        2.5364688123
Si            1.9867464669        0.9420406454        0.6334748110
Si           10.4590599071        4.9362807100        3.3311936159
End final coordinates



     Writing all to output data dir ./Aknew_.save/

     init_run     :      9.20s CPU      9.38s WALL (       1 calls)
     electrons    :   1239.03s CPU   1249.31s WALL (      10 calls)
     update_pot   :     25.55s CPU     25.68s WALL (       9 calls)
     forces       :     40.56s CPU     40.76s WALL (      10 calls)
     stress       :     72.64s CPU     72.93s WALL (      10 calls)

     Called by init_run:
     wfcinit      :      5.98s CPU      6.09s WALL (       1 calls)
     potinit      :      1.22s CPU      1.28s WALL (       1 calls)
     hinit0       :      1.91s CPU      1.92s WALL (       1 calls)

     Called by electrons:
     c_bands      :   1103.01s CPU   1110.92s WALL (      62 calls)
     sum_band     :    123.32s CPU    124.40s WALL (      62 calls)
     v_of_rho     :      9.62s CPU     10.94s WALL (      67 calls)
     newd         :      2.66s CPU      2.78s WALL (      67 calls)
     mix_rho      :      0.40s CPU      0.40s WALL (      62 calls)

     Called by c_bands:
     init_us_2    :     23.07s CPU     23.16s WALL (   16385 calls)
     init_us_2:cp :     23.00s CPU     23.11s WALL (   16385 calls)
     cegterg      :   1001.25s CPU   1008.93s WALL (    7006 calls)

     Called by *egterg:
     cdiaghg      :     46.13s CPU     46.39s WALL (   32677 calls)
     h_psi        :    699.06s CPU    705.83s WALL (   34372 calls)
     s_psi        :     34.32s CPU     34.42s WALL (   34372 calls)
     g_psi        :      4.34s CPU      4.36s WALL (   27253 calls)

     Called by h_psi:
     h_psi:calbec :     65.15s CPU     65.43s WALL (   34372 calls)
     vloc_psi     :    583.79s CPU    590.14s WALL (   34372 calls)
     add_vuspsi   :     39.73s CPU     39.84s WALL (   34372 calls)

     General routines
     calbec       :     93.33s CPU     93.74s WALL (   47028 calls)
     fft          :      6.03s CPU      6.31s WALL (    1115 calls)
     ffts         :      0.42s CPU      0.42s WALL (     129 calls)
     fftw         :    582.34s CPU    588.52s WALL ( 1691712 calls)
     interpolate  :      0.82s CPU      0.82s WALL (      67 calls)

     Parallel routines

     PWSCF        :  23m 8.52s CPU  23m19.99s WALL


   This run was terminated on:   9:55:42   4Aug2025            

=------------------------------------------------------------------------------=
   JOB DONE.
=------------------------------------------------------------------------------=
