
     Program PWSCF v.7.0 starts on  4Aug2025 at 14: 3:15 

     This program is part of the open-source Quantum ESPRESSO suite
     for quantum simulation of materials; please cite
         "P. Giannozzi et al., J. Phys.:Condens. Matter 21 395502 (2009);
         "P. Giannozzi et al., J. Phys.:Condens. Matter 29 465901 (2017);
         "P. Giannozzi et al., J. Chem. Phys. 152 154105 (2020);
          URL http://www.quantum-espresso.org", 
     in publications or presentations arising from this work. More details at
     http://www.quantum-espresso.org/quote

     Parallel version (MPI & OpenMP), running on      16 processor cores
     Number of MPI processes:                16
     Threads/MPI process:                     1

     MPI processes distributed on     1 nodes
     K-points division:     npool     =       4
     R & G space division:  proc/nbgrp/npool/nimage =       4
     4430 MiB available memory on the printing compute node when the environment starts

     Waiting for input...
     Reading input from standard input
Warning: card &CELL ignored
Warning: card    CELL_DYNAMICS    = 'BFGS' ignored
Warning: card    PRESS            = 150 ignored
Warning: card    PRESS_CONV_THR   = 0.05 ignored
Warning: card / ignored

     Current dimensions of program PWSCF are:
     Max number of different atomic species (ntypx) = 10
     Max number of k-points (npk) =  40000
     Max angular momentum in pseudopotentials (lmaxx) =  4
     file O.pbe-nl-rrkjus_psl.1.0.0.UPF: wavefunction(s)  2S renormalized
     file Mg.pbe-spnl-rrkjus_psl.1.0.0.UPF: wavefunction(s)  2P renormalized
     Message from routine setup:
     using ibrav=0 with symmetry is DISCOURAGED, use correct ibrav instead

     Subspace diagonalization in iterative solution of the eigenvalue problem:
     one sub-group per band group will be used
     scalapack distributed-memory algorithm (size of sub-group:  2*  2 procs)


     Parallelization info
     --------------------
     sticks:   dense  smooth     PW     G-vecs:    dense   smooth      PW
     Min         909     482    142                35282    13728    2181
     Max         910     483    143                35283    13729    2182
     Sum        3639    1931    569               141129    54915    8727

     Using Slab Decomposition



     bravais-lattice index     =            0
     lattice parameter (alat)  =       9.4486  a.u.
     unit-cell volume          =     568.4427 (a.u.)^3
     number of atoms/cell      =           10
     number of atomic types    =            3
     number of electrons       =        64.00
     number of Kohn-Sham states=           32
     kinetic-energy cutoff     =      80.0000  Ry
     charge density cutoff     =     600.0000  Ry
     scf convergence threshold =      1.0E-06
     mixing beta               =       0.7000
     number of iterations used =            8  plain     mixing
     energy convergence thresh.=      1.0E-04
     force convergence thresh. =      1.0E-03
     Exchange-correlation= PBE
                           (   1   4   3   4   0   0   0)
     nstep                     =           50


     celldm(1)=   9.448602  celldm(2)=   0.000000  celldm(3)=   0.000000
     celldm(4)=   0.000000  celldm(5)=   0.000000  celldm(6)=   0.000000

     crystal axes: (cart. coord. in units of alat)
               a(1) = (   1.000000   0.000000   0.000000 )  
               a(2) = (   0.598229   0.852473   0.000000 )  
               a(3) = (   0.598229   0.319087   0.790502 )  

     reciprocal axes: (cart. coord. in units 2 pi/alat)
               b(1) = (  1.000000 -0.701757 -0.473506 )  
               b(2) = (  0.000000  1.173057 -0.473506 )  
               b(3) = (  0.000000  0.000000  1.265018 )  


     PseudoPot. # 1 for O  read from file:
     /home/tim/espresso/pseudo/O.pbe-nl-rrkjus_psl.1.0.0.UPF
     MD5 check sum: 233c8028909f741e7889d61785a595bc
     Pseudo is Ultrasoft + core correction, Zval =  6.0
     Generated using 'atomic' code by A. Dal Corso  v.7.0
     Using radial grid of 1095 points,  4 beta functions with: 
                l(1) =   0
                l(2) =   0
                l(3) =   1
                l(4) =   1
     Q(r) pseudized with 0 coefficients 


     PseudoPot. # 2 for Mg read from file:
     /home/tim/espresso/pseudo/Mg.pbe-spnl-rrkjus_psl.1.0.0.UPF
     MD5 check sum: 37caad9c05fe2a5f639d8b65b442f5f9
     Pseudo is Ultrasoft + core correction, Zval = 10.0
     Generated using 'atomic' code by A. Dal Corso  v.7.0
     Using radial grid of 1129 points,  4 beta functions with: 
                l(1) =   0
                l(2) =   0
                l(3) =   1
                l(4) =   1
     Q(r) pseudized with 0 coefficients 


     PseudoPot. # 3 for Si read from file:
     /home/tim/espresso/pseudo/Si.pbe-nl-rrkjus_psl.1.0.0.UPF
     MD5 check sum: ceeb670d53204f1f4f48a0a0dd9ca3d4
     Pseudo is Ultrasoft + core correction, Zval =  4.0
     Generated using 'atomic' code by A. Dal Corso  v.7.0
     Using radial grid of 1141 points,  4 beta functions with: 
                l(1) =   0
                l(2) =   0
                l(3) =   1
                l(4) =   1
     Q(r) pseudized with 0 coefficients 


     atomic species   valence    mass     pseudopotential
        O              6.00    15.99900     O ( 1.00)
        Mg            10.00    24.30500     Mg( 1.00)
        Si             4.00    28.08500     Si( 1.00)

      2 Sym. Ops., with inversion, found



   Cartesian axes

     site n.     atom                  positions (alat units)
         1           O   tau(   1) = (   1.2556278   0.8790681   0.1613627  )
         2           O   tau(   2) = (   1.1117127   0.7840322   0.7547646  )
         3           O   tau(   3) = (   1.4133075   0.3534446   0.4445225  )
         4           O   tau(   4) = (   0.9408310   0.2924924   0.6291397  )
         5           O   tau(   5) = (   1.0847462   0.3875283   0.0357378  )
         6           O   tau(   6) = (   0.7831513   0.8181159   0.3459799  )
         7           Mg  tau(   7) = (   0.7915657   0.4222101   0.2848834  )
         8           Mg  tau(   8) = (   1.4048931   0.7493504   0.5056190  )
         9           Si  tau(   9) = (   0.3466428   0.1848944   0.1247562  )
        10           Si  tau(  10) = (   1.8498160   0.9866661   0.6657462  )

     number of k points=   504

     Number of k-points >= 100: set verbosity='high' to print them.

     Dense  grid:   141129 G-vectors     FFT dimensions: (  75,  80,  80)

     Smooth grid:    54915 G-vectors     FFT dimensions: (  54,  60,  60)

     Estimated max dynamical RAM per process >     143.37 MB

     Estimated total dynamical RAM >       2.14 GB

     Check: negative core charge=   -0.000002

     Initial potential from superposition of free atoms

     starting charge      63.9970, renormalised to      64.0000
     Starting wfcs are   42 randomized atomic wfcs

     total cpu time spent up to now is        8.5 secs

     per-process dynamical memory:   143.8 Mb

     Self-consistent Calculation

     iteration #  1     ecut=    80.00 Ry     beta= 0.70
     Davidson diagonalization with overlap
     ethr =  1.00E-02,  avg # of iterations =  2.0

     total cpu time spent up to now is       23.2 secs

     total energy              =    -468.50722472 Ry
     estimated scf accuracy    <       2.09541958 Ry

     iteration #  2     ecut=    80.00 Ry     beta= 0.70
     Davidson diagonalization with overlap
     ethr =  3.27E-03,  avg # of iterations =  3.0

     total cpu time spent up to now is       43.0 secs

     total energy              =    -469.22563781 Ry
     estimated scf accuracy    <       1.20731327 Ry

     iteration #  3     ecut=    80.00 Ry     beta= 0.70
     Davidson diagonalization with overlap
     ethr =  1.89E-03,  avg # of iterations =  2.0

     total cpu time spent up to now is       58.7 secs

     total energy              =    -469.39523963 Ry
     estimated scf accuracy    <       0.04203807 Ry

     iteration #  4     ecut=    80.00 Ry     beta= 0.70
     Davidson diagonalization with overlap
     ethr =  6.57E-05,  avg # of iterations =  5.2

     total cpu time spent up to now is       80.5 secs

     total energy              =    -469.43848923 Ry
     estimated scf accuracy    <       0.05215552 Ry

     iteration #  5     ecut=    80.00 Ry     beta= 0.70
     Davidson diagonalization with overlap
     ethr =  6.57E-05,  avg # of iterations =  2.0

     total cpu time spent up to now is       93.5 secs

     total energy              =    -469.43337364 Ry
     estimated scf accuracy    <       0.01780852 Ry

     iteration #  6     ecut=    80.00 Ry     beta= 0.70
     Davidson diagonalization with overlap
     ethr =  2.78E-05,  avg # of iterations =  2.0

     total cpu time spent up to now is      109.8 secs

     total energy              =    -469.43607709 Ry
     estimated scf accuracy    <       0.00085490 Ry

     iteration #  7     ecut=    80.00 Ry     beta= 0.70
     Davidson diagonalization with overlap
     ethr =  1.34E-06,  avg # of iterations =  5.6

     total cpu time spent up to now is      133.4 secs

     total energy              =    -469.43693553 Ry
     estimated scf accuracy    <       0.00010905 Ry

     iteration #  8     ecut=    80.00 Ry     beta= 0.70
     Davidson diagonalization with overlap
     ethr =  1.70E-07,  avg # of iterations =  3.0

     total cpu time spent up to now is      151.6 secs

     total energy              =    -469.43672426 Ry
     estimated scf accuracy    <       0.00067833 Ry

     iteration #  9     ecut=    80.00 Ry     beta= 0.70
     Davidson diagonalization with overlap
     ethr =  1.70E-07,  avg # of iterations =  3.0

     total cpu time spent up to now is      171.1 secs

     total energy              =    -469.43676247 Ry
     estimated scf accuracy    <       0.00006434 Ry

     iteration # 10     ecut=    80.00 Ry     beta= 0.70
     Davidson diagonalization with overlap
     ethr =  1.01E-07,  avg # of iterations =  2.0

     total cpu time spent up to now is      188.0 secs

     End of self-consistent calculation

     Number of k-points >= 100: set verbosity='high' to print the bands.

     highest occupied level (ev):     8.6086

!    total energy              =    -469.43677641 Ry
     estimated scf accuracy    <       0.00000072 Ry

     The total energy is the sum of the following terms:
     one-electron contribution =    -209.34695772 Ry
     hartree contribution      =     139.87696118 Ry
     xc contribution           =     -91.70247009 Ry
     ewald contribution        =    -308.26430977 Ry

     convergence has been achieved in  10 iterations

     Forces acting on atoms (cartesian axes, Ry/au):

     atom    1 type  1   force =     0.03578627   -0.00514414    0.00713932
     atom    2 type  1   force =     0.05559171   -0.00049354    0.00544003
     atom    3 type  1   force =     0.01593118    0.01632512   -0.00158322
     atom    4 type  1   force =    -0.03578627    0.00514414   -0.00713932
     atom    5 type  1   force =    -0.05559171    0.00049354   -0.00544003
     atom    6 type  1   force =    -0.01593118   -0.01632512    0.00158322
     atom    7 type  2   force =     0.00081501    0.00512105    0.00848420
     atom    8 type  2   force =    -0.00081501   -0.00512105   -0.00848420
     atom    9 type  3   force =    -0.00690462   -0.01333430    0.00063660
     atom   10 type  3   force =     0.00690462    0.01333430   -0.00063660

     Total force =     0.103208     Total SCF correction =     0.000237


     Computing stress (Cartesian axis) and pressure

          total   stress  (Ry/bohr**3)                   (kbar)     P=      177.08
   0.00224406   0.00003632  -0.00004771          330.11        5.34       -7.02
   0.00003632   0.00064984   0.00006282            5.34       95.59        9.24
  -0.00004771   0.00006282   0.00071740           -7.02        9.24      105.53


     BFGS Geometry Optimization
     Energy error            =      0.0E+00 Ry
     Gradient error          =      5.6E-02 Ry/Bohr

     number of scf cycles    =   1
     number of bfgs steps    =   0

     energy             new  =    -469.4367764059 Ry

     new trust radius        =       0.0558594251 bohr
     new conv_thr            =       0.0000010000 Ry


ATOMIC_POSITIONS (angstrom)
O             6.2970575874        4.3926051172        0.8105889999
O             5.5879644596        3.9198879439        3.7766904461
O             7.0749466437        1.7758568086        2.2217681107
O             4.6852035359        1.4651798399        3.1419111197
O             5.3942966637        1.9378970132        0.1758096735
O             3.9073144796        4.0819281485        1.7307320088
Mg            3.9582478653        2.1137541224        1.4289021914
Mg            7.0240132580        3.7440308347        2.5235979282
Si            1.7295548933        0.9174131232        0.6241162017
Si            9.2527062301        4.9403718339        3.3283839179



     Writing config-only to output data dir ./Aknew_.save/
     NEW-OLD atomic charge density approx. for the potential

     Check: negative core charge=   -0.000002

     total cpu time spent up to now is      200.2 secs

     per-process dynamical memory:   148.7 Mb

     Self-consistent Calculation

     iteration #  1     ecut=    80.00 Ry     beta= 0.70
     Davidson diagonalization with overlap
     ethr =  1.00E-06,  avg # of iterations =  8.2

     total cpu time spent up to now is      234.8 secs

     total energy              =    -469.44235860 Ry
     estimated scf accuracy    <       0.00280034 Ry

     iteration #  2     ecut=    80.00 Ry     beta= 0.70
     Davidson diagonalization with overlap
     ethr =  4.38E-06,  avg # of iterations =  2.0

     total cpu time spent up to now is      251.0 secs

     total energy              =    -469.44317728 Ry
     estimated scf accuracy    <       0.00042370 Ry

     iteration #  3     ecut=    80.00 Ry     beta= 0.70
     Davidson diagonalization with overlap
     ethr =  6.62E-07,  avg # of iterations =  2.0

     total cpu time spent up to now is      266.4 secs

     total energy              =    -469.44326338 Ry
     estimated scf accuracy    <       0.00000531 Ry

     iteration #  4     ecut=    80.00 Ry     beta= 0.70
     Davidson diagonalization with overlap
     ethr =  8.30E-09,  avg # of iterations =  6.7

     total cpu time spent up to now is      294.0 secs

     total energy              =    -469.44327073 Ry
     estimated scf accuracy    <       0.00000180 Ry

     iteration #  5     ecut=    80.00 Ry     beta= 0.70
     Davidson diagonalization with overlap
     ethr =  2.82E-09,  avg # of iterations =  2.2

     total cpu time spent up to now is      309.9 secs

     End of self-consistent calculation

     Number of k-points >= 100: set verbosity='high' to print the bands.

     highest occupied level (ev):     8.5739

!    total energy              =    -469.44327107 Ry
     estimated scf accuracy    <       0.00000018 Ry

     The total energy is the sum of the following terms:
     one-electron contribution =    -209.75309652 Ry
     hartree contribution      =     140.13605229 Ry
     xc contribution           =     -91.65000208 Ry
     ewald contribution        =    -308.17622475 Ry

     convergence has been achieved in   5 iterations

     Forces acting on atoms (cartesian axes, Ry/au):

     atom    1 type  1   force =     0.01340770   -0.00512259   -0.00362234
     atom    2 type  1   force =     0.00836193    0.00052137    0.00682832
     atom    3 type  1   force =     0.00294168    0.00123968   -0.00413508
     atom    4 type  1   force =    -0.01340770    0.00512259    0.00362234
     atom    5 type  1   force =    -0.00836193   -0.00052137   -0.00682832
     atom    6 type  1   force =    -0.00294168   -0.00123968    0.00413508
     atom    7 type  2   force =    -0.00331670    0.00422360    0.00709357
     atom    8 type  2   force =     0.00331670   -0.00422360   -0.00709357
     atom    9 type  3   force =    -0.00853439   -0.00179982   -0.00410436
     atom   10 type  3   force =     0.00853439    0.00179982    0.00410436

     Total force =     0.032721     Total SCF correction =     0.001445


     Computing stress (Cartesian axis) and pressure

          total   stress  (Ry/bohr**3)                   (kbar)     P=      158.67
   0.00194148   0.00001892  -0.00011150          285.60        2.78      -16.40
   0.00001892   0.00058768   0.00007791            2.78       86.45       11.46
  -0.00011150   0.00007791   0.00070675          -16.40       11.46      103.97

     Energy error            =      6.5E-03 Ry
     Gradient error          =      1.3E-02 Ry/Bohr

     number of scf cycles    =   2
     number of bfgs steps    =   1

     energy             old  =    -469.4367764059 Ry
     energy             new  =    -469.4432710693 Ry

     CASE: energy            _new < energy            _old

     new trust radius        =       0.0218640410 bohr
     new conv_thr            =       0.0000001341 Ry


ATOMIC_POSITIONS (angstrom)
O             6.3077902218        4.3888716667        0.8084128334
O             5.5960902231        3.9202241523        3.7816060759
O             7.0776491794        1.7774094170        2.2188649677
O             4.6744709015        1.4689132904        3.1440872862
O             5.3861709002        1.9375608048        0.1708940437
O             3.9046119439        4.0803755401        1.7336351518
Mg            3.9560090307        2.1168702321        1.4341307080
Mg            7.0262520926        3.7409147250        2.5183694116
Si            1.7234065459        0.9156052199        0.6213296696
Si            9.2588545775        4.9421797372        3.3311704500



     Writing config-only to output data dir ./Aknew_.save/
     NEW-OLD atomic charge density approx. for the potential

     Check: negative core charge=   -0.000002

     total cpu time spent up to now is      322.6 secs

     per-process dynamical memory:   148.7 Mb

     Self-consistent Calculation

     iteration #  1     ecut=    80.00 Ry     beta= 0.70
     Davidson diagonalization with overlap
     ethr =  1.00E-06,  avg # of iterations =  8.0

     total cpu time spent up to now is      353.3 secs

     total energy              =    -469.44417109 Ry
     estimated scf accuracy    <       0.00038288 Ry

     iteration #  2     ecut=    80.00 Ry     beta= 0.70
     Davidson diagonalization with overlap
     ethr =  5.98E-07,  avg # of iterations =  2.0

     total cpu time spent up to now is      367.4 secs

     total energy              =    -469.44426398 Ry
     estimated scf accuracy    <       0.00003836 Ry

     iteration #  3     ecut=    80.00 Ry     beta= 0.70
     Davidson diagonalization with overlap
     ethr =  5.99E-08,  avg # of iterations =  2.0

     total cpu time spent up to now is      382.1 secs

     total energy              =    -469.44427242 Ry
     estimated scf accuracy    <       0.00000091 Ry

     iteration #  4     ecut=    80.00 Ry     beta= 0.70
     Davidson diagonalization with overlap
     ethr =  1.43E-09,  avg # of iterations =  5.3

     total cpu time spent up to now is      402.7 secs

     End of self-consistent calculation

     Number of k-points >= 100: set verbosity='high' to print the bands.

     highest occupied level (ev):     8.5683

!    total energy              =    -469.44427285 Ry
     estimated scf accuracy    <       0.00000012 Ry

     The total energy is the sum of the following terms:
     one-electron contribution =    -209.79306849 Ry
     hartree contribution      =     140.17574917 Ry
     xc contribution           =     -91.63383147 Ry
     ewald contribution        =    -308.19312205 Ry

     convergence has been achieved in   4 iterations

     Forces acting on atoms (cartesian axes, Ry/au):

     atom    1 type  1   force =     0.00236831   -0.00194978   -0.00529352
     atom    2 type  1   force =    -0.00016805   -0.00040559    0.00383622
     atom    3 type  1   force =    -0.00205605   -0.00396482   -0.00373315
     atom    4 type  1   force =    -0.00236831    0.00194978    0.00529352
     atom    5 type  1   force =     0.00016805    0.00040559   -0.00383622
     atom    6 type  1   force =     0.00205605    0.00396482    0.00373315
     atom    7 type  2   force =    -0.00208511    0.00213519    0.00286889
     atom    8 type  2   force =     0.00208511   -0.00213519   -0.00286889
     atom    9 type  3   force =    -0.00330898   -0.00088803   -0.00260556
     atom   10 type  3   force =     0.00330898    0.00088803    0.00260556

     Total force =     0.015613     Total SCF correction =     0.000826


     Computing stress (Cartesian axis) and pressure

          total   stress  (Ry/bohr**3)                   (kbar)     P=      153.32
   0.00182827   0.00001095  -0.00011772          268.95        1.61      -17.32
   0.00001095   0.00059082   0.00008283            1.61       86.91       12.19
  -0.00011772   0.00008283   0.00070768          -17.32       12.19      104.10

     Energy error            =      1.0E-03 Ry
     Gradient error          =      5.3E-03 Ry/Bohr

     number of scf cycles    =   3
     number of bfgs steps    =   2

     energy             old  =    -469.4432710693 Ry
     energy             new  =    -469.4442728462 Ry

     CASE: energy            _new < energy            _old

     new trust radius        =       0.0121927607 bohr
     new conv_thr            =       0.0000000529 Ry


ATOMIC_POSITIONS (angstrom)
O             6.3123170505        4.3866766313        0.8043730763
O             5.5988775758        3.9199696212        3.7853880201
O             7.0770404479        1.7752220776        2.2156025030
O             4.6699440728        1.4711083258        3.1481270433
O             5.3833835475        1.9378153359        0.1671120995
O             3.9052206754        4.0825628795        1.7368976165
Mg            3.9541311050        2.1190971982        1.4373417569
Mg            7.0281300183        3.7386877589        2.5151583627
Si            1.7197636939        0.9142805781        0.6189742047
Si            9.2624974295        4.9435043790        3.3335259149



     Writing config-only to output data dir ./Aknew_.save/
     NEW-OLD atomic charge density approx. for the potential

     Check: negative core charge=   -0.000002

     total cpu time spent up to now is      415.0 secs

     per-process dynamical memory:   152.8 Mb

     Self-consistent Calculation

     iteration #  1     ecut=    80.00 Ry     beta= 0.70
     Davidson diagonalization with overlap
     ethr =  1.00E-06,  avg # of iterations =  7.0

     total cpu time spent up to now is      441.6 secs

     total energy              =    -469.44452529 Ry
     estimated scf accuracy    <       0.00009249 Ry

     iteration #  2     ecut=    80.00 Ry     beta= 0.70
     Davidson diagonalization with overlap
     ethr =  1.45E-07,  avg # of iterations =  2.0

     total cpu time spent up to now is      456.7 secs

     total energy              =    -469.44454122 Ry
     estimated scf accuracy    <       0.00000285 Ry

     iteration #  3     ecut=    80.00 Ry     beta= 0.70
     Davidson diagonalization with overlap
     ethr =  4.45E-09,  avg # of iterations =  4.1

     total cpu time spent up to now is      474.4 secs

     total energy              =    -469.44454211 Ry
     estimated scf accuracy    <       0.00000051 Ry

     iteration #  4     ecut=    80.00 Ry     beta= 0.70
     Davidson diagonalization with overlap
     ethr =  8.01E-10,  avg # of iterations =  3.2

     total cpu time spent up to now is      491.1 secs

     total energy              =    -469.44454224 Ry
     estimated scf accuracy    <       0.00000015 Ry

     iteration #  5     ecut=    80.00 Ry     beta= 0.70
     Davidson diagonalization with overlap
     ethr =  2.37E-10,  avg # of iterations =  3.1

     total cpu time spent up to now is      506.8 secs

     End of self-consistent calculation

     Number of k-points >= 100: set verbosity='high' to print the bands.

     highest occupied level (ev):     8.5695

!    total energy              =    -469.44454228 Ry
     estimated scf accuracy    <          6.2E-09 Ry

     The total energy is the sum of the following terms:
     one-electron contribution =    -209.73193768 Ry
     hartree contribution      =     140.14813944 Ry
     xc contribution           =     -91.63223852 Ry
     ewald contribution        =    -308.22850552 Ry

     convergence has been achieved in   5 iterations

     Forces acting on atoms (cartesian axes, Ry/au):

     atom    1 type  1   force =    -0.00039441    0.00013970   -0.00256274
     atom    2 type  1   force =    -0.00149722   -0.00037452    0.00124060
     atom    3 type  1   force =    -0.00215903   -0.00281312   -0.00248328
     atom    4 type  1   force =     0.00039441   -0.00013970    0.00256274
     atom    5 type  1   force =     0.00149722    0.00037452   -0.00124060
     atom    6 type  1   force =     0.00215903    0.00281312    0.00248328
     atom    7 type  2   force =    -0.00056360    0.00110430    0.00058983
     atom    8 type  2   force =     0.00056360   -0.00110430   -0.00058983
     atom    9 type  3   force =    -0.00049296    0.00057038   -0.00079011
     atom   10 type  3   force =     0.00049296   -0.00057038    0.00079011

     Total force =     0.008060     Total SCF correction =     0.000208


     Computing stress (Cartesian axis) and pressure

          total   stress  (Ry/bohr**3)                   (kbar)     P=      152.56
   0.00178640   0.00001566  -0.00011097          262.79        2.30      -16.32
   0.00001566   0.00060992   0.00009246            2.30       89.72       13.60
  -0.00011097   0.00009246   0.00071500          -16.32       13.60      105.18

     Energy error            =      2.7E-04 Ry
     Gradient error          =      2.8E-03 Ry/Bohr

     number of scf cycles    =   4
     number of bfgs steps    =   3

     energy             old  =    -469.4442728462 Ry
     energy             new  =    -469.4445422763 Ry

     CASE: energy            _new < energy            _old

     new trust radius        =       0.0067411592 bohr
     new conv_thr            =       0.0000000269 Ry


ATOMIC_POSITIONS (angstrom)
O             6.3136044167        4.3862258159        0.8018582000
O             5.5991655548        3.9196672572        3.7871597129
O             7.0756531979        1.7730716912        2.2131171911
O             4.6686567066        1.4715591412        3.1506419196
O             5.3830955685        1.9381176999        0.1653404067
O             3.9066079254        4.0847132659        1.7393829284
Mg            3.9533395356        2.1204550601        1.4385970176
Mg            7.0289215877        3.7373298970        2.5139031020
Si            1.7184890517        0.9142917590        0.6179157579
Si            9.2637720717        4.9434931981        3.3345843617



     Writing config-only to output data dir ./Aknew_.save/
     NEW-OLD atomic charge density approx. for the potential

     Check: negative core charge=   -0.000002

     total cpu time spent up to now is      519.0 secs

     per-process dynamical memory:   152.8 Mb

     Self-consistent Calculation

     iteration #  1     ecut=    80.00 Ry     beta= 0.70
     Davidson diagonalization with overlap
     ethr =  1.00E-06,  avg # of iterations =  5.0

     Threshold (ethr) on eigenvalues was too large:
     Diagonalizing with lowered threshold

     Davidson diagonalization with overlap
     ethr =  4.17E-08,  avg # of iterations =  3.6

     total cpu time spent up to now is      559.6 secs

     total energy              =    -469.44459778 Ry
     estimated scf accuracy    <       0.00003051 Ry

     iteration #  2     ecut=    80.00 Ry     beta= 0.70
     Davidson diagonalization with overlap
     ethr =  4.77E-08,  avg # of iterations =  2.0

     total cpu time spent up to now is      574.5 secs

     total energy              =    -469.44460368 Ry
     estimated scf accuracy    <       0.00000201 Ry

     iteration #  3     ecut=    80.00 Ry     beta= 0.70
     Davidson diagonalization with overlap
     ethr =  3.14E-09,  avg # of iterations =  3.3

     total cpu time spent up to now is      592.5 secs

     total energy              =    -469.44460427 Ry
     estimated scf accuracy    <       0.00000023 Ry

     iteration #  4     ecut=    80.00 Ry     beta= 0.70
     Davidson diagonalization with overlap
     ethr =  3.67E-10,  avg # of iterations =  3.2

     total cpu time spent up to now is      608.8 secs

     End of self-consistent calculation

     Number of k-points >= 100: set verbosity='high' to print the bands.

     highest occupied level (ev):     8.5710

!    total energy              =    -469.44460433 Ry
     estimated scf accuracy    <       0.00000002 Ry

     The total energy is the sum of the following terms:
     one-electron contribution =    -209.68166860 Ry
     hartree contribution      =     140.12166906 Ry
     xc contribution           =     -91.63498884 Ry
     ewald contribution        =    -308.24961596 Ry

     convergence has been achieved in   4 iterations

     Forces acting on atoms (cartesian axes, Ry/au):

     atom    1 type  1   force =    -0.00022615    0.00072243   -0.00054668
     atom    2 type  1   force =    -0.00053297   -0.00012205   -0.00004402
     atom    3 type  1   force =    -0.00104134   -0.00057512   -0.00123206
     atom    4 type  1   force =     0.00022615   -0.00072243    0.00054668
     atom    5 type  1   force =     0.00053297    0.00012205    0.00004402
     atom    6 type  1   force =     0.00104134    0.00057512    0.00123206
     atom    7 type  2   force =     0.00034604    0.00060067   -0.00001379
     atom    8 type  2   force =    -0.00034604   -0.00060067    0.00001379
     atom    9 type  3   force =     0.00070951    0.00062818    0.00019574
     atom   10 type  3   force =    -0.00070951   -0.00062818   -0.00019574

     Total force =     0.003324     Total SCF correction =     0.000308


     Computing stress (Cartesian axis) and pressure

          total   stress  (Ry/bohr**3)                   (kbar)     P=      153.50
   0.00178149   0.00002160  -0.00010455          262.07        3.18      -15.38
   0.00002160   0.00062702   0.00009806            3.18       92.24       14.43
  -0.00010455   0.00009806   0.00072186          -15.38       14.43      106.19

     Energy error            =      6.2E-05 Ry
     Gradient error          =      1.2E-03 Ry/Bohr

     number of scf cycles    =   5
     number of bfgs steps    =   4

     energy             old  =    -469.4445422763 Ry
     energy             new  =    -469.4446043303 Ry

     CASE: energy            _new < energy            _old

     new trust radius        =       0.0029826779 bohr
     new conv_thr            =       0.0000000100 Ry


ATOMIC_POSITIONS (angstrom)
O             6.3137589990        4.3865945446        0.8011327572
O             5.5989684645        3.9195495257        3.7874257491
O             7.0748173075        1.7724288568        2.2119427602
O             4.6685021243        1.4711904125        3.1513673624
O             5.3832926588        1.9382354314        0.1650743705
O             3.9074438158        4.0853561003        1.7405573593
Mg            3.9534371751        2.1210676627        1.4388198819
Mg            7.0288239482        3.7367172944        2.5136802377
Si            1.7187177927        0.9146704212        0.6178713162
Si            9.2635433307        4.9431145359        3.3346288034



     Writing config-only to output data dir ./Aknew_.save/
     NEW-OLD atomic charge density approx. for the potential

     Check: negative core charge=   -0.000002

     total cpu time spent up to now is      621.9 secs

     per-process dynamical memory:   152.8 Mb

     Self-consistent Calculation

     iteration #  1     ecut=    80.00 Ry     beta= 0.70
     Davidson diagonalization with overlap
     ethr =  1.00E-06,  avg # of iterations =  2.0

     Threshold (ethr) on eigenvalues was too large:
     Diagonalizing with lowered threshold

     Davidson diagonalization with overlap
     ethr =  4.56E-09,  avg # of iterations =  6.1

     total cpu time spent up to now is      662.7 secs

     total energy              =    -469.44461390 Ry
     estimated scf accuracy    <       0.00000449 Ry

     iteration #  2     ecut=    80.00 Ry     beta= 0.70
     Davidson diagonalization with overlap
     ethr =  7.02E-09,  avg # of iterations =  2.0

     total cpu time spent up to now is      677.5 secs

     total energy              =    -469.44461495 Ry
     estimated scf accuracy    <       0.00000052 Ry

     iteration #  3     ecut=    80.00 Ry     beta= 0.70
     Davidson diagonalization with overlap
     ethr =  8.11E-10,  avg # of iterations =  2.0

     total cpu time spent up to now is      694.0 secs

     total energy              =    -469.44461508 Ry
     estimated scf accuracy    <       0.00000003 Ry

     iteration #  4     ecut=    80.00 Ry     beta= 0.70
     Davidson diagonalization with overlap
     ethr =  4.51E-11,  avg # of iterations =  5.2

     total cpu time spent up to now is      714.7 secs

     End of self-consistent calculation

     Number of k-points >= 100: set verbosity='high' to print the bands.

     highest occupied level (ev):     8.5715

!    total energy              =    -469.44461509 Ry
     estimated scf accuracy    <          3.2E-09 Ry

     The total energy is the sum of the following terms:
     one-electron contribution =    -209.66851488 Ry
     hartree contribution      =     140.11410263 Ry
     xc contribution           =     -91.63647911 Ry
     ewald contribution        =    -308.25372373 Ry

     convergence has been achieved in   4 iterations

     Forces acting on atoms (cartesian axes, Ry/au):

     atom    1 type  1   force =     0.00020629    0.00052764   -0.00009106
     atom    2 type  1   force =    -0.00002073    0.00009724   -0.00029217
     atom    3 type  1   force =    -0.00042584    0.00032403   -0.00050821
     atom    4 type  1   force =    -0.00020629   -0.00052764    0.00009106
     atom    5 type  1   force =     0.00002073   -0.00009724    0.00029217
     atom    6 type  1   force =     0.00042584   -0.00032403    0.00050821
     atom    7 type  2   force =     0.00054050    0.00042629   -0.00000864
     atom    8 type  2   force =    -0.00054050   -0.00042629    0.00000864
     atom    9 type  3   force =     0.00067085    0.00032116    0.00028717
     atom   10 type  3   force =    -0.00067085   -0.00032116   -0.00028717

     Total force =     0.002039     Total SCF correction =     0.000160


     Computing stress (Cartesian axis) and pressure

          total   stress  (Ry/bohr**3)                   (kbar)     P=      154.01
   0.00178427   0.00002376  -0.00010234          262.47        3.50      -15.05
   0.00002376   0.00063281   0.00009944            3.50       93.09       14.63
  -0.00010234   0.00009944   0.00072372          -15.05       14.63      106.46

     Energy error            =      1.1E-05 Ry
     Gradient error          =      6.7E-04 Ry/Bohr

     bfgs converged in   6 scf cycles and   5 bfgs steps
     (criteria: energy <  1.0E-04 Ry, force <  1.0E-03 Ry/Bohr)

     End of BFGS Geometry Optimization

     Final energy             =    -469.4446150892 Ry

     File ./Aknew_.bfgs deleted, as requested
Begin final coordinates

ATOMIC_POSITIONS (angstrom)
O             6.3137589990        4.3865945446        0.8011327572
O             5.5989684645        3.9195495257        3.7874257491
O             7.0748173075        1.7724288568        2.2119427602
O             4.6685021243        1.4711904125        3.1513673624
O             5.3832926588        1.9382354314        0.1650743705
O             3.9074438158        4.0853561003        1.7405573593
Mg            3.9534371751        2.1210676627        1.4388198819
Mg            7.0288239482        3.7367172944        2.5136802377
Si            1.7187177927        0.9146704212        0.6178713162
Si            9.2635433307        4.9431145359        3.3346288034
End final coordinates



     Writing all to output data dir ./Aknew_.save/

     init_run     :      8.12s CPU      8.27s WALL (       1 calls)
     electrons    :    637.75s CPU    643.74s WALL (       6 calls)
     update_pot   :     13.31s CPU     13.35s WALL (       5 calls)
     forces       :     19.72s CPU     19.82s WALL (       6 calls)
     stress       :     38.13s CPU     38.24s WALL (       6 calls)

     Called by init_run:
     wfcinit      :      5.01s CPU      5.12s WALL (       1 calls)
     potinit      :      1.12s CPU      1.14s WALL (       1 calls)
     hinit0       :      1.92s CPU      1.93s WALL (       1 calls)

     Called by electrons:
     c_bands      :    568.83s CPU    573.59s WALL (      34 calls)
     sum_band     :     63.67s CPU     64.32s WALL (      34 calls)
     v_of_rho     :      3.86s CPU      4.40s WALL (      38 calls)
     newd         :      1.43s CPU      1.53s WALL (      38 calls)
     mix_rho      :      0.17s CPU      0.17s WALL (      34 calls)

     Called by c_bands:
     init_us_2    :     12.21s CPU     12.25s WALL (   10206 calls)
     init_us_2:cp :     12.16s CPU     12.22s WALL (   10206 calls)
     cegterg      :    519.08s CPU    523.72s WALL (    4284 calls)

     Called by *egterg:
     cdiaghg      :     24.30s CPU     24.45s WALL (   18795 calls)
     h_psi        :    373.51s CPU    377.69s WALL (   19803 calls)
     s_psi        :     17.43s CPU     17.48s WALL (   19803 calls)
     g_psi        :      2.32s CPU      2.33s WALL (   15393 calls)

     Called by h_psi:
     h_psi:calbec :     32.89s CPU     33.06s WALL (   19803 calls)
     vloc_psi     :    315.49s CPU    319.42s WALL (   19803 calls)
     add_vuspsi   :     20.21s CPU     20.28s WALL (   19803 calls)

     General routines
     calbec       :     45.54s CPU     45.78s WALL (   27867 calls)
     fft          :      3.05s CPU      3.20s WALL (     639 calls)
     ffts         :      0.24s CPU      0.24s WALL (      72 calls)
     fftw         :    320.67s CPU    324.49s WALL ( 1036410 calls)
     interpolate  :      0.38s CPU      0.38s WALL (      38 calls)

     Parallel routines

     PWSCF        :  11m58.21s CPU  12m 4.97s WALL


   This run was terminated on:  14:15:20   4Aug2025            

=------------------------------------------------------------------------------=
   JOB DONE.
=------------------------------------------------------------------------------=
