&CONTROL
   calculation      = 'relax'
   tstress          = .true.
   tprnfor          = .true.
   prefix           = 'Aknew_'
/
&SYSTEM
   ecutwfc          = 80
   ecutrho          = 600
   ntyp             = 3
   nat              = 10
   ibrav            = 0
/
&ELECTRONS
   conv_thr         = 1e-06
   mixing_beta      = 0.7
/
&IONS
   ion_dynamics     = 'bfgs'
/
&CELL
   cell_dynamics    = 'bfgs'
   press            = 150
   press_conv_thr   = 0.05
/

ATOMIC_SPECIES
O 15.999 O.wc-nl-rrkjus_psl.1.0.0.UPF
Mg 24.305 Mg.wc-spnl-rrkjus_psl.1.0.0.UPF
Si 28.085 Si.wc-nl-rrkjus_psl.1.0.0.UPF

K_POINTS automatic
10 10 9  0 0 0

CELL_PARAMETERS angstrom
2.76096839100000 -0.13716122337000 4.29771833226000
-1.38048419500000 2.25390754263000 4.22598626928000
-1.38048419500000 -2.52822998937000 4.36945039524000

ATOMIC_POSITIONS angstrom
O 1.3332367565 -0.6936835807 3.1148786156 
O -0.1514700165 1.3531964558 3.0534722146 
O -1.1817667401 -0.9560373451 3.1227492286 
O -1.3332367565 0.6936835807 -3.1148786156 
O 0.1514700165 -1.3531964558 -3.0534722146 
O 1.1817667401 0.9560373451 -3.1227492286 
Mg 0.0000000000 -0.1484024214 4.6499425381 
Mg 0.0000000000 0.1484024214 -4.6499425381 
Si 0.0000000000 -0.0649926010 2.0364348307 
Si 0.0000000000 0.0649926010 -2.0364348307 

