
     Program PWSCF v.7.0 starts on  4Aug2025 at 11:29:35 

     This program is part of the open-source Quantum ESPRESSO suite
     for quantum simulation of materials; please cite
         "P. Giannozzi et al., J. Phys.:Condens. Matter 21 395502 (2009);
         "P. Giannozzi et al., J. Phys.:Condens. Matter 29 465901 (2017);
         "P. Giannozzi et al., J. Chem. Phys. 152 154105 (2020);
          URL http://www.quantum-espresso.org", 
     in publications or presentations arising from this work. More details at
     http://www.quantum-espresso.org/quote

     Parallel version (MPI & OpenMP), running on      16 processor cores
     Number of MPI processes:                16
     Threads/MPI process:                     1

     MPI processes distributed on     1 nodes
     K-points division:     npool     =       4
     R & G space division:  proc/nbgrp/npool/nimage =       4
     4442 MiB available memory on the printing compute node when the environment starts

     Waiting for input...
     Reading input from standard input
Warning: card &CELL ignored
Warning: card    CELL_DYNAMICS    = 'BFGS' ignored
Warning: card    PRESS            = 150 ignored
Warning: card    PRESS_CONV_THR   = 0.05 ignored
Warning: card / ignored

     Current dimensions of program PWSCF are:
     Max number of different atomic species (ntypx) = 10
     Max number of k-points (npk) =  40000
     Max angular momentum in pseudopotentials (lmaxx) =  4
     file O.pbe-nl-rrkjus_psl.1.0.0.UPF: wavefunction(s)  2S renormalized
     file Mg.pbe-spnl-rrkjus_psl.1.0.0.UPF: wavefunction(s)  2P renormalized
     Message from routine setup:
     using ibrav=0 with symmetry is DISCOURAGED, use correct ibrav instead

     Subspace diagonalization in iterative solution of the eigenvalue problem:
     one sub-group per band group will be used
     scalapack distributed-memory algorithm (size of sub-group:  2*  2 procs)


     Parallelization info
     --------------------
     sticks:   dense  smooth     PW     G-vecs:    dense   smooth      PW
     Min        1027     548    161                39985    15573    2486
     Max        1028     549    162                39987    15574    2487
     Sum        4111    2195    647               159945    62295    9945

     Using Slab Decomposition



     bravais-lattice index     =            0
     lattice parameter (alat)  =      10.6769  a.u.
     unit-cell volume          =     644.4143 (a.u.)^3
     number of atoms/cell      =           10
     number of atomic types    =            3
     number of electrons       =        64.00
     number of Kohn-Sham states=           32
     kinetic-energy cutoff     =      80.0000  Ry
     charge density cutoff     =     600.0000  Ry
     scf convergence threshold =      1.0E-06
     mixing beta               =       0.7000
     number of iterations used =            8  plain     mixing
     energy convergence thresh.=      1.0E-04
     force convergence thresh. =      1.0E-03
     Exchange-correlation= PBE
                           (   1   4   3   4   0   0   0)
     nstep                     =           50


     celldm(1)=  10.676901  celldm(2)=   0.000000  celldm(3)=   0.000000
     celldm(4)=   0.000000  celldm(5)=   0.000000  celldm(6)=   0.000000

     crystal axes: (cart. coord. in units of alat)
               a(1) = (   1.000000   0.000000   0.000000 )  
               a(2) = (   0.598680   0.755649   0.000000 )  
               a(3) = (   0.598680   0.282979   0.700663 )  

     reciprocal axes: (cart. coord. in units 2 pi/alat)
               b(1) = (  1.000000 -0.792273 -0.534471 )  
               b(2) = (  0.000000  1.323365 -0.534471 )  
               b(3) = (  0.000000  0.000000  1.427219 )  


     PseudoPot. # 1 for O  read from file:
     /home/tim/espresso/pseudo/O.pbe-nl-rrkjus_psl.1.0.0.UPF
     MD5 check sum: 233c8028909f741e7889d61785a595bc
     Pseudo is Ultrasoft + core correction, Zval =  6.0
     Generated using 'atomic' code by A. Dal Corso  v.7.0
     Using radial grid of 1095 points,  4 beta functions with: 
                l(1) =   0
                l(2) =   0
                l(3) =   1
                l(4) =   1
     Q(r) pseudized with 0 coefficients 


     PseudoPot. # 2 for Mg read from file:
     /home/tim/espresso/pseudo/Mg.pbe-spnl-rrkjus_psl.1.0.0.UPF
     MD5 check sum: 37caad9c05fe2a5f639d8b65b442f5f9
     Pseudo is Ultrasoft + core correction, Zval = 10.0
     Generated using 'atomic' code by A. Dal Corso  v.7.0
     Using radial grid of 1129 points,  4 beta functions with: 
                l(1) =   0
                l(2) =   0
                l(3) =   1
                l(4) =   1
     Q(r) pseudized with 0 coefficients 


     PseudoPot. # 3 for Si read from file:
     /home/tim/espresso/pseudo/Si.pbe-nl-rrkjus_psl.1.0.0.UPF
     MD5 check sum: ceeb670d53204f1f4f48a0a0dd9ca3d4
     Pseudo is Ultrasoft + core correction, Zval =  4.0
     Generated using 'atomic' code by A. Dal Corso  v.7.0
     Using radial grid of 1141 points,  4 beta functions with: 
                l(1) =   0
                l(2) =   0
                l(3) =   1
                l(4) =   1
     Q(r) pseudized with 0 coefficients 


     atomic species   valence    mass     pseudopotential
        O              6.00    15.99900     O ( 1.00)
        Mg            10.00    24.30500     Mg( 1.00)
        Si             4.00    28.08500     Si( 1.00)

      2 Sym. Ops., with inversion, found



   Cartesian axes

     site n.     atom                  positions (alat units)
         1           O   tau(   1) = (   1.2559284   0.7792124   0.1428483  )
         2           O   tau(   2) = (   1.1121132   0.6950474   0.6690174  )
         3           O   tau(   3) = (   1.4134878   0.3131581   0.3939348  )
         4           O   tau(   4) = (   0.9414321   0.2594153   0.5578148  )
         5           O   tau(   5) = (   1.0852472   0.3435804   0.0316458  )
         6           O   tau(   6) = (   0.7838726   0.7254697   0.3067283  )
         7           Mg  tau(   7) = (   0.7921728   0.3744368   0.2525968  )
         8           Mg  tau(   8) = (   1.4051876   0.6641909   0.4480663  )
         9           Si  tau(   9) = (   0.3469074   0.1639729   0.1106169  )
        10           Si  tau(  10) = (   1.8504530   0.8746548   0.5900462  )

     number of k points=   452

     Number of k-points >= 100: set verbosity='high' to print them.

     Dense  grid:   159945 G-vectors     FFT dimensions: (  90,  81,  81)

     Smooth grid:    62295 G-vectors     FFT dimensions: (  64,  60,  60)

     Estimated max dynamical RAM per process >     151.08 MB

     Estimated total dynamical RAM >       2.25 GB

     Check: negative core charge=   -0.000002

     Initial potential from superposition of free atoms

     starting charge      63.9970, renormalised to      64.0000
     Starting wfcs are   42 randomized atomic wfcs

     total cpu time spent up to now is        9.7 secs

     per-process dynamical memory:   150.0 Mb

     Self-consistent Calculation

     iteration #  1     ecut=    80.00 Ry     beta= 0.70
     Davidson diagonalization with overlap
     ethr =  1.00E-02,  avg # of iterations =  2.0

     total cpu time spent up to now is       26.3 secs

     total energy              =    -468.49594023 Ry
     estimated scf accuracy    <       2.09275026 Ry

     iteration #  2     ecut=    80.00 Ry     beta= 0.70
     Davidson diagonalization with overlap
     ethr =  3.27E-03,  avg # of iterations =  3.0

     total cpu time spent up to now is       45.8 secs

     total energy              =    -469.19311622 Ry
     estimated scf accuracy    <       1.52210425 Ry

     iteration #  3     ecut=    80.00 Ry     beta= 0.70
     Davidson diagonalization with overlap
     ethr =  2.38E-03,  avg # of iterations =  2.0

     total cpu time spent up to now is       61.7 secs

     total energy              =    -469.39636807 Ry
     estimated scf accuracy    <       0.05990307 Ry

     iteration #  4     ecut=    80.00 Ry     beta= 0.70
     Davidson diagonalization with overlap
     ethr =  9.36E-05,  avg # of iterations =  5.3

     total cpu time spent up to now is       85.3 secs

     total energy              =    -469.45835329 Ry
     estimated scf accuracy    <       0.08336565 Ry

     iteration #  5     ecut=    80.00 Ry     beta= 0.70
     Davidson diagonalization with overlap
     ethr =  9.36E-05,  avg # of iterations =  2.0

     total cpu time spent up to now is      100.0 secs

     total energy              =    -469.44868771 Ry
     estimated scf accuracy    <       0.03158624 Ry

     iteration #  6     ecut=    80.00 Ry     beta= 0.70
     Davidson diagonalization with overlap
     ethr =  4.94E-05,  avg # of iterations =  2.0

     total cpu time spent up to now is      116.0 secs

     total energy              =    -469.45361271 Ry
     estimated scf accuracy    <       0.00137076 Ry

     iteration #  7     ecut=    80.00 Ry     beta= 0.70
     Davidson diagonalization with overlap
     ethr =  2.14E-06,  avg # of iterations =  5.5

     total cpu time spent up to now is      138.6 secs

     total energy              =    -469.45479211 Ry
     estimated scf accuracy    <       0.00006092 Ry

     iteration #  8     ecut=    80.00 Ry     beta= 0.70
     Davidson diagonalization with overlap
     ethr =  9.52E-08,  avg # of iterations =  5.7

     total cpu time spent up to now is      167.4 secs

     total energy              =    -469.45431528 Ry
     estimated scf accuracy    <       0.00184077 Ry

     iteration #  9     ecut=    80.00 Ry     beta= 0.70
     Davidson diagonalization with overlap
     ethr =  9.52E-08,  avg # of iterations =  5.0

     total cpu time spent up to now is      192.9 secs

     total energy              =    -469.45451499 Ry
     estimated scf accuracy    <       0.00007227 Ry

     iteration # 10     ecut=    80.00 Ry     beta= 0.70
     Davidson diagonalization with overlap
     ethr =  9.52E-08,  avg # of iterations =  3.0

     total cpu time spent up to now is      210.3 secs

     total energy              =    -469.45452925 Ry
     estimated scf accuracy    <       0.00000119 Ry

     iteration # 11     ecut=    80.00 Ry     beta= 0.70
     Davidson diagonalization with overlap
     ethr =  1.86E-09,  avg # of iterations =  6.5

     total cpu time spent up to now is      236.4 secs

     total energy              =    -469.45453098 Ry
     estimated scf accuracy    <       0.00000219 Ry

     iteration # 12     ecut=    80.00 Ry     beta= 0.70
     Davidson diagonalization with overlap
     ethr =  1.86E-09,  avg # of iterations =  2.0

     total cpu time spent up to now is      252.8 secs

     End of self-consistent calculation

     Number of k-points >= 100: set verbosity='high' to print the bands.

     highest occupied level (ev):     6.9099

!    total energy              =    -469.45453075 Ry
     estimated scf accuracy    <       0.00000046 Ry

     The total energy is the sum of the following terms:
     one-electron contribution =    -228.52923490 Ry
     hartree contribution      =     145.44883185 Ry
     xc contribution           =     -90.88832675 Ry
     ewald contribution        =    -295.48580094 Ry

     convergence has been achieved in  12 iterations

     Forces acting on atoms (cartesian axes, Ry/au):

     atom    1 type  1   force =    -0.01652027   -0.00076749   -0.00613378
     atom    2 type  1   force =    -0.03988073   -0.00256171   -0.00120209
     atom    3 type  1   force =    -0.01922075   -0.01514385    0.00030422
     atom    4 type  1   force =     0.01652027    0.00076749    0.00613378
     atom    5 type  1   force =     0.03988073    0.00256171    0.00120209
     atom    6 type  1   force =     0.01922075    0.01514385   -0.00030422
     atom    7 type  2   force =     0.00231741   -0.00159678   -0.00339979
     atom    8 type  2   force =    -0.00231741    0.00159678    0.00339979
     atom    9 type  3   force =     0.00038234    0.01129838   -0.00193346
     atom   10 type  3   force =    -0.00038234   -0.01129838    0.00193346

     Total force =     0.072931     Total SCF correction =     0.000992


     Computing stress (Cartesian axis) and pressure

          total   stress  (Ry/bohr**3)                   (kbar)     P=      -93.63
  -0.00131710  -0.00011488   0.00000469         -193.75      -16.90        0.69
  -0.00011488  -0.00027193  -0.00009527          -16.90      -40.00      -14.01
   0.00000469  -0.00009527  -0.00032052            0.69      -14.01      -47.15


     BFGS Geometry Optimization
     Energy error            =      0.0E+00 Ry
     Gradient error          =      4.0E-02 Ry/Bohr

     number of scf cycles    =   1
     number of bfgs steps    =   0

     energy             new  =    -469.4545307453 Ry

     new trust radius        =       0.0399809981 bohr
     new conv_thr            =       0.0000010000 Ry


ATOMIC_POSITIONS (angstrom)
O             7.0872192318        4.4021230474        0.8038432041
O             6.2623056694        3.9256433148        3.7792938479
O             7.9759966059        1.7613207817        2.2258819594
O             5.3278077854        1.4660955765        3.1548845380
O             6.1527213478        1.9425753092        0.1794338942
O             4.4390304112        4.1068978423        1.7328457827
Mg            4.4769812699        2.1147129249        1.4253661726
Mg            7.9380457473        3.7535056991        2.5333615695
Si            1.9602198021        0.9324215364        0.6239594304
Si           10.4548072150        4.9357970876        3.3347683117



     Writing config-only to output data dir ./Aknew_.save/
     NEW-OLD atomic charge density approx. for the potential

     Check: negative core charge=   -0.000002

     total cpu time spent up to now is      266.4 secs

     per-process dynamical memory:   155.0 Mb

     Self-consistent Calculation

     iteration #  1     ecut=    80.00 Ry     beta= 0.70
     Davidson diagonalization with overlap
     ethr =  1.00E-06,  avg # of iterations =  5.9

     total cpu time spent up to now is      295.9 secs

     total energy              =    -469.45802353 Ry
     estimated scf accuracy    <       0.00133971 Ry

     iteration #  2     ecut=    80.00 Ry     beta= 0.70
     Davidson diagonalization with overlap
     ethr =  2.09E-06,  avg # of iterations =  2.0

     total cpu time spent up to now is      311.1 secs

     total energy              =    -469.45844460 Ry
     estimated scf accuracy    <       0.00029142 Ry

     iteration #  3     ecut=    80.00 Ry     beta= 0.70
     Davidson diagonalization with overlap
     ethr =  4.55E-07,  avg # of iterations =  2.0

     total cpu time spent up to now is      327.1 secs

     total energy              =    -469.45849984 Ry
     estimated scf accuracy    <       0.00000441 Ry

     iteration #  4     ecut=    80.00 Ry     beta= 0.70
     Davidson diagonalization with overlap
     ethr =  6.89E-09,  avg # of iterations =  6.9

     total cpu time spent up to now is      357.1 secs

     total energy              =    -469.45850576 Ry
     estimated scf accuracy    <       0.00000172 Ry

     iteration #  5     ecut=    80.00 Ry     beta= 0.70
     Davidson diagonalization with overlap
     ethr =  2.68E-09,  avg # of iterations =  2.0

     total cpu time spent up to now is      372.9 secs

     End of self-consistent calculation

     Number of k-points >= 100: set verbosity='high' to print the bands.

     highest occupied level (ev):     6.9061

!    total energy              =    -469.45850597 Ry
     estimated scf accuracy    <       0.00000019 Ry

     The total energy is the sum of the following terms:
     one-electron contribution =    -228.24032316 Ry
     hartree contribution      =     145.27184129 Ry
     xc contribution           =     -90.92348106 Ry
     ewald contribution        =    -295.56654304 Ry

     convergence has been achieved in   5 iterations

     Forces acting on atoms (cartesian axes, Ry/au):

     atom    1 type  1   force =    -0.00907998    0.00268087   -0.00087097
     atom    2 type  1   force =    -0.02065563   -0.00118689   -0.00127745
     atom    3 type  1   force =    -0.01013772   -0.00334860    0.00276301
     atom    4 type  1   force =     0.00907998   -0.00268087    0.00087097
     atom    5 type  1   force =     0.02065563    0.00118689    0.00127745
     atom    6 type  1   force =     0.01013772    0.00334860   -0.00276301
     atom    7 type  2   force =     0.00430082   -0.00053754   -0.00183121
     atom    8 type  2   force =    -0.00430082    0.00053754    0.00183121
     atom    9 type  3   force =     0.00287606    0.00517869    0.00039636
     atom   10 type  3   force =    -0.00287606   -0.00517869   -0.00039636

     Total force =     0.037392     Total SCF correction =     0.001867


     Computing stress (Cartesian axis) and pressure

          total   stress  (Ry/bohr**3)                   (kbar)     P=      -85.43
  -0.00118636  -0.00007203   0.00002604         -174.52      -10.60        3.83
  -0.00007203  -0.00025289  -0.00009422          -10.60      -37.20      -13.86
   0.00002604  -0.00009422  -0.00030289            3.83      -13.86      -44.56

     Energy error            =      4.0E-03 Ry
     Gradient error          =      2.1E-02 Ry/Bohr

     number of scf cycles    =   2
     number of bfgs steps    =   1

     energy             old  =    -469.4545307453 Ry
     energy             new  =    -469.4585059711 Ry

     CASE: energy            _new < energy            _old

     new trust radius        =       0.0441266290 bohr
     new conv_thr            =       0.0000002066 Ry


ATOMIC_POSITIONS (angstrom)
O             7.0770359317        4.4048711690        0.8026580891
O             6.2390348513        3.9242937824        3.7779125612
O             7.9645915030        1.7571508076        2.2287644391
O             5.3379910855        1.4633474549        3.1560696530
O             6.1759921659        1.9439248416        0.1808151809
O             4.4504355141        4.1110678164        1.7299633030
Mg            4.4815524854        2.1140817282        1.4233093300
Mg            7.9334745318        3.7541368958        2.5354184121
Si            1.9632232241        0.9383154113        0.6242823915
Si           10.4518037930        4.9299032127        3.3344453506



     Writing config-only to output data dir ./Aknew_.save/
     NEW-OLD atomic charge density approx. for the potential

     Check: negative core charge=   -0.000002

     total cpu time spent up to now is      386.4 secs

     per-process dynamical memory:   155.0 Mb

     Self-consistent Calculation

     iteration #  1     ecut=    80.00 Ry     beta= 0.70
     Davidson diagonalization with overlap
     ethr =  1.00E-06,  avg # of iterations =  7.0

     total cpu time spent up to now is      420.8 secs

     total energy              =    -469.45958319 Ry
     estimated scf accuracy    <       0.00143930 Ry

     iteration #  2     ecut=    80.00 Ry     beta= 0.70
     Davidson diagonalization with overlap
     ethr =  2.25E-06,  avg # of iterations =  2.1

     total cpu time spent up to now is      437.0 secs

     total energy              =    -469.46000946 Ry
     estimated scf accuracy    <       0.00032373 Ry

     iteration #  3     ecut=    80.00 Ry     beta= 0.70
     Davidson diagonalization with overlap
     ethr =  5.06E-07,  avg # of iterations =  2.0

     total cpu time spent up to now is      452.6 secs

     total energy              =    -469.46007222 Ry
     estimated scf accuracy    <       0.00000603 Ry

     iteration #  4     ecut=    80.00 Ry     beta= 0.70
     Davidson diagonalization with overlap
     ethr =  9.42E-09,  avg # of iterations =  5.2

     total cpu time spent up to now is      474.9 secs

     total energy              =    -469.46007561 Ry
     estimated scf accuracy    <       0.00000139 Ry

     iteration #  5     ecut=    80.00 Ry     beta= 0.70
     Davidson diagonalization with overlap
     ethr =  2.17E-09,  avg # of iterations =  3.0

     total cpu time spent up to now is      492.9 secs

     End of self-consistent calculation

     Number of k-points >= 100: set verbosity='high' to print the bands.

     highest occupied level (ev):     6.9063

!    total energy              =    -469.46007594 Ry
     estimated scf accuracy    <       0.00000015 Ry

     The total energy is the sum of the following terms:
     one-electron contribution =    -228.07922498 Ry
     hartree contribution      =     145.16622563 Ry
     xc contribution           =     -90.95982385 Ry
     ewald contribution        =    -295.58725275 Ry

     convergence has been achieved in   5 iterations

     Forces acting on atoms (cartesian axes, Ry/au):

     atom    1 type  1   force =    -0.00189013    0.00513282    0.00303453
     atom    2 type  1   force =     0.00119295    0.00061096   -0.00137284
     atom    3 type  1   force =    -0.00168520    0.00559276    0.00427225
     atom    4 type  1   force =     0.00189013   -0.00513282   -0.00303453
     atom    5 type  1   force =    -0.00119295   -0.00061096    0.00137284
     atom    6 type  1   force =     0.00168520   -0.00559276   -0.00427225
     atom    7 type  2   force =     0.00591005    0.00030755    0.00038640
     atom    8 type  2   force =    -0.00591005   -0.00030755   -0.00038640
     atom    9 type  3   force =     0.00482459   -0.00168166    0.00221053
     atom   10 type  3   force =    -0.00482459    0.00168166   -0.00221053

     Total force =     0.017963     Total SCF correction =     0.000988


     Computing stress (Cartesian axis) and pressure

          total   stress  (Ry/bohr**3)                   (kbar)     P=      -75.24
  -0.00102841  -0.00003370   0.00004285         -151.28       -4.96        6.30
  -0.00003370  -0.00023181  -0.00010151           -4.96      -34.10      -14.93
   0.00004285  -0.00010151  -0.00027417            6.30      -14.93      -40.33

     Energy error            =      1.6E-03 Ry
     Gradient error          =      5.9E-03 Ry/Bohr

     number of scf cycles    =   3
     number of bfgs steps    =   2

     energy             old  =    -469.4585059711 Ry
     energy             new  =    -469.4600759431 Ry

     CASE: energy            _new < energy            _old

     new trust radius        =       0.0080388657 bohr
     new conv_thr            =       0.0000000591 Ry


ATOMIC_POSITIONS (angstrom)
O             7.0746108039        4.4079091148        0.8040331992
O             6.2364944834        3.9244399267        3.7769992869
O             7.9620890473        1.7593945219        2.2313720905
O             5.3404162133        1.4603095091        3.1546945429
O             6.1785325338        1.9437786973        0.1817284552
O             4.4529379698        4.1088241021        1.7273556516
Mg            4.4852750857        2.1141467894        1.4232468573
Mg            7.9297519315        3.7540718346        2.5354808848
Si            1.9661515731        0.9382334815        0.6254671218
Si           10.4488754440        4.9299851425        3.3332606203



     Writing config-only to output data dir ./Aknew_.save/
     NEW-OLD atomic charge density approx. for the potential

     Check: negative core charge=   -0.000002

     total cpu time spent up to now is      506.7 secs

     per-process dynamical memory:   156.0 Mb

     Self-consistent Calculation

     iteration #  1     ecut=    80.00 Ry     beta= 0.70
     Davidson diagonalization with overlap
     ethr =  1.00E-06,  avg # of iterations =  7.0

     Threshold (ethr) on eigenvalues was too large:
     Diagonalizing with lowered threshold

     Davidson diagonalization with overlap
     ethr =  5.78E-08,  avg # of iterations =  3.8

     total cpu time spent up to now is      551.3 secs

     total energy              =    -469.46036872 Ry
     estimated scf accuracy    <       0.00004263 Ry

     iteration #  2     ecut=    80.00 Ry     beta= 0.70
     Davidson diagonalization with overlap
     ethr =  6.66E-08,  avg # of iterations =  2.0

     total cpu time spent up to now is      567.9 secs

     total energy              =    -469.46037504 Ry
     estimated scf accuracy    <       0.00000287 Ry

     iteration #  3     ecut=    80.00 Ry     beta= 0.70
     Davidson diagonalization with overlap
     ethr =  4.48E-09,  avg # of iterations =  3.5

     total cpu time spent up to now is      586.6 secs

     total energy              =    -469.46037569 Ry
     estimated scf accuracy    <       0.00000104 Ry

     iteration #  4     ecut=    80.00 Ry     beta= 0.70
     Davidson diagonalization with overlap
     ethr =  1.62E-09,  avg # of iterations =  3.4

     total cpu time spent up to now is      604.0 secs

     total energy              =    -469.46037595 Ry
     estimated scf accuracy    <       0.00000009 Ry

     iteration #  5     ecut=    80.00 Ry     beta= 0.70
     Davidson diagonalization with overlap
     ethr =  1.48E-10,  avg # of iterations =  4.2

     total cpu time spent up to now is      622.6 secs

     End of self-consistent calculation

     Number of k-points >= 100: set verbosity='high' to print the bands.

     highest occupied level (ev):     6.9117

!    total energy              =    -469.46037598 Ry
     estimated scf accuracy    <          7.1E-09 Ry

     The total energy is the sum of the following terms:
     one-electron contribution =    -228.07644515 Ry
     hartree contribution      =     145.16485287 Ry
     xc contribution           =     -90.96134512 Ry
     ewald contribution        =    -295.58743858 Ry

     convergence has been achieved in   5 iterations

     Forces acting on atoms (cartesian axes, Ry/au):

     atom    1 type  1   force =    -0.00129426    0.00434096    0.00247044
     atom    2 type  1   force =     0.00255642    0.00096402   -0.00098280
     atom    3 type  1   force =    -0.00126309    0.00450967    0.00331849
     atom    4 type  1   force =     0.00129426   -0.00434096   -0.00247044
     atom    5 type  1   force =    -0.00255642   -0.00096402    0.00098280
     atom    6 type  1   force =     0.00126309   -0.00450967   -0.00331849
     atom    7 type  2   force =     0.00550034    0.00031739    0.00055898
     atom    8 type  2   force =    -0.00550034   -0.00031739   -0.00055898
     atom    9 type  3   force =     0.00395122   -0.00139086    0.00167986
     atom   10 type  3   force =    -0.00395122    0.00139086   -0.00167986

     Total force =     0.015429     Total SCF correction =     0.000362


     Computing stress (Cartesian axis) and pressure

          total   stress  (Ry/bohr**3)                   (kbar)     P=      -75.02
  -0.00101402  -0.00003137   0.00004184         -149.17       -4.62        6.16
  -0.00003137  -0.00024061  -0.00010634           -4.62      -35.39      -15.64
   0.00004184  -0.00010634  -0.00027524            6.16      -15.64      -40.49

     Energy error            =      3.0E-04 Ry
     Gradient error          =      5.5E-03 Ry/Bohr

     number of scf cycles    =   4
     number of bfgs steps    =   3

     energy             old  =    -469.4600759431 Ry
     energy             new  =    -469.4603759771 Ry

     CASE: energy            _new < energy            _old

     new trust radius        =       0.0088427522 bohr
     new conv_thr            =       0.0000000300 Ry


ATOMIC_POSITIONS (angstrom)
O             7.0722324990        4.4114790960        0.8056652782
O             6.2352491405        3.9249638521        3.7760660315
O             7.9595617808        1.7620887974        2.2342189835
O             5.3427945182        1.4567395279        3.1530624639
O             6.1797778767        1.9432547719        0.1826617106
O             4.4554652363        4.1061298266        1.7245087586
Mg            4.4899500360        2.1142852109        1.4233962024
Mg            7.9250769812        3.7539334131        2.5353315397
Si            1.9694927018        0.9379632185        0.6267552424
Si           10.4455343153        4.9302554055        3.3319724997



     Writing config-only to output data dir ./Aknew_.save/
     NEW-OLD atomic charge density approx. for the potential

     Check: negative core charge=   -0.000002

     total cpu time spent up to now is      637.2 secs

     per-process dynamical memory:   156.0 Mb

     Self-consistent Calculation

     iteration #  1     ecut=    80.00 Ry     beta= 0.70
     Davidson diagonalization with overlap
     ethr =  1.00E-06,  avg # of iterations =  7.0

     Threshold (ethr) on eigenvalues was too large:
     Diagonalizing with lowered threshold

     Davidson diagonalization with overlap
     ethr =  6.52E-08,  avg # of iterations =  2.1

     total cpu time spent up to now is      680.2 secs

     total energy              =    -469.46065553 Ry
     estimated scf accuracy    <       0.00004694 Ry

     iteration #  2     ecut=    80.00 Ry     beta= 0.70
     Davidson diagonalization with overlap
     ethr =  7.33E-08,  avg # of iterations =  2.0

     total cpu time spent up to now is      696.7 secs

     total energy              =    -469.46066231 Ry
     estimated scf accuracy    <       0.00000322 Ry

     iteration #  3     ecut=    80.00 Ry     beta= 0.70
     Davidson diagonalization with overlap
     ethr =  5.03E-09,  avg # of iterations =  3.7

     total cpu time spent up to now is      716.5 secs

     total energy              =    -469.46066297 Ry
     estimated scf accuracy    <       0.00000157 Ry

     iteration #  4     ecut=    80.00 Ry     beta= 0.70
     Davidson diagonalization with overlap
     ethr =  2.46E-09,  avg # of iterations =  3.3

     total cpu time spent up to now is      734.2 secs

     total energy              =    -469.46066337 Ry
     estimated scf accuracy    <       0.00000010 Ry

     iteration #  5     ecut=    80.00 Ry     beta= 0.70
     Davidson diagonalization with overlap
     ethr =  1.55E-10,  avg # of iterations =  4.2

     total cpu time spent up to now is      752.5 secs

     End of self-consistent calculation

     Number of k-points >= 100: set verbosity='high' to print the bands.

     highest occupied level (ev):     6.9169

!    total energy              =    -469.46066340 Ry
     estimated scf accuracy    <          6.3E-09 Ry

     The total energy is the sum of the following terms:
     one-electron contribution =    -228.07898865 Ry
     hartree contribution      =     145.16836911 Ry
     xc contribution           =     -90.96147041 Ry
     ewald contribution        =    -295.58857345 Ry

     convergence has been achieved in   5 iterations

     Forces acting on atoms (cartesian axes, Ry/au):

     atom    1 type  1   force =    -0.00090403    0.00314742    0.00158247
     atom    2 type  1   force =     0.00240483    0.00114357   -0.00043817
     atom    3 type  1   force =    -0.00116891    0.00296334    0.00211867
     atom    4 type  1   force =     0.00090403   -0.00314742   -0.00158247
     atom    5 type  1   force =    -0.00240483   -0.00114357    0.00043817
     atom    6 type  1   force =     0.00116891   -0.00296334   -0.00211867
     atom    7 type  2   force =     0.00495060    0.00020453    0.00045141
     atom    8 type  2   force =    -0.00495060   -0.00020453   -0.00045141
     atom    9 type  3   force =     0.00276977   -0.00075039    0.00112299
     atom   10 type  3   force =    -0.00276977    0.00075039   -0.00112299

     Total force =     0.011781     Total SCF correction =     0.000141


     Computing stress (Cartesian axis) and pressure

          total   stress  (Ry/bohr**3)                   (kbar)     P=      -75.09
  -0.00100484  -0.00003088   0.00004032         -147.82       -4.54        5.93
  -0.00003088  -0.00025012  -0.00011143           -4.54      -36.79      -16.39
   0.00004032  -0.00011143  -0.00027633            5.93      -16.39      -40.65

     Energy error            =      2.9E-04 Ry
     Gradient error          =      5.0E-03 Ry/Bohr

     number of scf cycles    =   5
     number of bfgs steps    =   4

     energy             old  =    -469.4603759771 Ry
     energy             new  =    -469.4606633962 Ry

     CASE: energy            _new < energy            _old

     new trust radius        =       0.0132641283 bohr
     new conv_thr            =       0.0000000287 Ry


ATOMIC_POSITIONS (angstrom)
O             7.0691207599        4.4161859989        0.8076343132
O             6.2340523850        3.9260386126        3.7750770669
O             7.9560001965        1.7653790786        2.2377249077
O             5.3459062573        1.4520326250        3.1510934289
O             6.1809746322        1.9421800114        0.1836506752
O             4.4590268206        4.1028395454        1.7210028344
Mg            4.4969636026        2.1144423500        1.4236255414
Mg            7.9180634146        3.7537762740        2.5351022007
Si            1.9738172213        0.9378348777        0.6283770073
Si           10.4412097958        4.9303837463        3.3303507348



     Writing config-only to output data dir ./Aknew_.save/
     NEW-OLD atomic charge density approx. for the potential

     Check: negative core charge=   -0.000002

     total cpu time spent up to now is      766.5 secs

     per-process dynamical memory:   156.0 Mb

     Self-consistent Calculation

     iteration #  1     ecut=    80.00 Ry     beta= 0.70
     Davidson diagonalization with overlap
     ethr =  1.00E-06,  avg # of iterations =  7.0

     total cpu time spent up to now is      795.6 secs

     total energy              =    -469.46091640 Ry
     estimated scf accuracy    <       0.00007311 Ry

     iteration #  2     ecut=    80.00 Ry     beta= 0.70
     Davidson diagonalization with overlap
     ethr =  1.14E-07,  avg # of iterations =  2.1

     total cpu time spent up to now is      811.7 secs

     total energy              =    -469.46092972 Ry
     estimated scf accuracy    <       0.00000608 Ry

     iteration #  3     ecut=    80.00 Ry     beta= 0.70
     Davidson diagonalization with overlap
     ethr =  9.49E-09,  avg # of iterations =  3.4

     total cpu time spent up to now is      830.1 secs

     total energy              =    -469.46093130 Ry
     estimated scf accuracy    <       0.00000282 Ry

     iteration #  4     ecut=    80.00 Ry     beta= 0.70
     Davidson diagonalization with overlap
     ethr =  4.41E-09,  avg # of iterations =  3.5

     total cpu time spent up to now is      848.0 secs

     total energy              =    -469.46093201 Ry
     estimated scf accuracy    <       0.00000014 Ry

     iteration #  5     ecut=    80.00 Ry     beta= 0.70
     Davidson diagonalization with overlap
     ethr =  2.22E-10,  avg # of iterations =  4.4

     total cpu time spent up to now is      868.2 secs

     End of self-consistent calculation

     Number of k-points >= 100: set verbosity='high' to print the bands.

     highest occupied level (ev):     6.9233

!    total energy              =    -469.46093205 Ry
     estimated scf accuracy    <          9.5E-09 Ry

     The total energy is the sum of the following terms:
     one-electron contribution =    -228.08264866 Ry
     hartree contribution      =     145.17374908 Ry
     xc contribution           =     -90.96203962 Ry
     ewald contribution        =    -295.58999285 Ry

     convergence has been achieved in   5 iterations

     Forces acting on atoms (cartesian axes, Ry/au):

     atom    1 type  1   force =    -0.00027636    0.00153228    0.00050412
     atom    2 type  1   force =     0.00176197    0.00121285    0.00028072
     atom    3 type  1   force =    -0.00095630    0.00123087    0.00064731
     atom    4 type  1   force =     0.00027636   -0.00153228   -0.00050412
     atom    5 type  1   force =    -0.00176197   -0.00121285   -0.00028072
     atom    6 type  1   force =     0.00095630   -0.00123087   -0.00064731
     atom    7 type  2   force =     0.00406871    0.00015198    0.00035520
     atom    8 type  2   force =    -0.00406871   -0.00015198   -0.00035520
     atom    9 type  3   force =     0.00120948   -0.00001787    0.00059324
     atom   10 type  3   force =    -0.00120948    0.00001787   -0.00059324

     Total force =     0.007576     Total SCF correction =     0.000159


     Computing stress (Cartesian axis) and pressure

          total   stress  (Ry/bohr**3)                   (kbar)     P=      -74.94
  -0.00099144  -0.00003062   0.00003863         -145.85       -4.50        5.68
  -0.00003062  -0.00026113  -0.00011848           -4.50      -38.41      -17.43
   0.00003863  -0.00011848  -0.00027580            5.68      -17.43      -40.57

     Energy error            =      2.7E-04 Ry
     Gradient error          =      4.1E-03 Ry/Bohr

     number of scf cycles    =   6
     number of bfgs steps    =   5

     energy             old  =    -469.4606633962 Ry
     energy             new  =    -469.4609320537 Ry

     CASE: energy            _new < energy            _old

     new trust radius        =       0.0198961925 bohr
     new conv_thr            =       0.0000000269 Ry


ATOMIC_POSITIONS (angstrom)
O             7.0653114755        4.4220854827        0.8098129635
O             6.2328701532        3.9280273476        3.7743430578
O             7.9510415218        1.7692631522        2.2417464658
O             5.3497155417        1.4461331412        3.1489147786
O             6.1821568640        1.9401912764        0.1843846843
O             4.4639854953        4.0989554718        1.7169812763
Mg            4.5074816274        2.1146907526        1.4240269308
Mg            7.9075453898        3.7535278714        2.5347008113
Si            1.9791053618        0.9380799114        0.6304807700
Si           10.4359216553        4.9301387126        3.3282469721



     Writing config-only to output data dir ./Aknew_.save/
     NEW-OLD atomic charge density approx. for the potential

     Check: negative core charge=   -0.000002

     total cpu time spent up to now is      882.3 secs

     per-process dynamical memory:   156.0 Mb

     Self-consistent Calculation

     iteration #  1     ecut=    80.00 Ry     beta= 0.70
     Davidson diagonalization with overlap
     ethr =  1.00E-06,  avg # of iterations =  8.7

     total cpu time spent up to now is      913.7 secs

     total energy              =    -469.46107702 Ry
     estimated scf accuracy    <       0.00011465 Ry

     iteration #  2     ecut=    80.00 Ry     beta= 0.70
     Davidson diagonalization with overlap
     ethr =  1.79E-07,  avg # of iterations =  2.0

     total cpu time spent up to now is      931.0 secs

     total energy              =    -469.46109672 Ry
     estimated scf accuracy    <       0.00000894 Ry

     iteration #  3     ecut=    80.00 Ry     beta= 0.70
     Davidson diagonalization with overlap
     ethr =  1.40E-08,  avg # of iterations =  3.5

     total cpu time spent up to now is      950.4 secs

     total energy              =    -469.46109889 Ry
     estimated scf accuracy    <       0.00000407 Ry

     iteration #  4     ecut=    80.00 Ry     beta= 0.70
     Davidson diagonalization with overlap
     ethr =  6.35E-09,  avg # of iterations =  3.4

     total cpu time spent up to now is      968.0 secs

     total energy              =    -469.46109993 Ry
     estimated scf accuracy    <       0.00000023 Ry

     iteration #  5     ecut=    80.00 Ry     beta= 0.70
     Davidson diagonalization with overlap
     ethr =  3.58E-10,  avg # of iterations =  4.3

     total cpu time spent up to now is      987.0 secs

     End of self-consistent calculation

     Number of k-points >= 100: set verbosity='high' to print the bands.

     highest occupied level (ev):     6.9309

!    total energy              =    -469.46110000 Ry
     estimated scf accuracy    <       0.00000001 Ry

     The total energy is the sum of the following terms:
     one-electron contribution =    -228.08731281 Ry
     hartree contribution      =     145.18139841 Ry
     xc contribution           =     -90.96373338 Ry
     ewald contribution        =    -295.59145221 Ry

     convergence has been achieved in   5 iterations

     Forces acting on atoms (cartesian axes, Ry/au):

     atom    1 type  1   force =     0.00063002   -0.00046101   -0.00071821
     atom    2 type  1   force =     0.00062996    0.00104602    0.00109863
     atom    3 type  1   force =    -0.00055916   -0.00060969   -0.00100339
     atom    4 type  1   force =    -0.00063002    0.00046101    0.00071821
     atom    5 type  1   force =    -0.00062996   -0.00104602   -0.00109863
     atom    6 type  1   force =     0.00055916    0.00060969    0.00100339
     atom    7 type  2   force =     0.00266480    0.00017037    0.00023258
     atom    8 type  2   force =    -0.00266480   -0.00017037   -0.00023258
     atom    9 type  3   force =    -0.00066410    0.00069455    0.00005169
     atom   10 type  3   force =     0.00066410   -0.00069455   -0.00005169

     Total force =     0.005220     Total SCF correction =     0.000283


     Computing stress (Cartesian axis) and pressure

          total   stress  (Ry/bohr**3)                   (kbar)     P=      -74.34
  -0.00097086  -0.00003058   0.00003655         -142.82       -4.50        5.38
  -0.00003058  -0.00027349  -0.00012831           -4.50      -40.23      -18.87
   0.00003655  -0.00012831  -0.00027175            5.38      -18.87      -39.98

     Energy error            =      1.7E-04 Ry
     Gradient error          =      2.7E-03 Ry/Bohr

     number of scf cycles    =   7
     number of bfgs steps    =   6

     energy             old  =    -469.4609320537 Ry
     energy             new  =    -469.4610999986 Ry

     CASE: energy            _new < energy            _old

     new trust radius        =       0.0085271538 bohr
     new conv_thr            =       0.0000000168 Ry


ATOMIC_POSITIONS (angstrom)
O             7.0645925435        4.4235000897        0.8100360017
O             6.2327635067        3.9291528580        3.7747606426
O             7.9493063441        1.7700728326        2.2423450300
O             5.3504344737        1.4447185342        3.1486917404
O             6.1822635105        1.9390657660        0.1839670995
O             4.4657206730        4.0981457914        1.7163827121
Mg            4.5119841477        2.1148695863        1.4242653895
Mg            7.9030428695        3.7533490377        2.5344623526
Si            1.9802396634        0.9385327922        0.6311431772
Si           10.4347873537        4.9296858318        3.3275845649



     Writing config-only to output data dir ./Aknew_.save/
     NEW-OLD atomic charge density approx. for the potential

     Check: negative core charge=   -0.000002

     total cpu time spent up to now is     1001.5 secs

     per-process dynamical memory:   156.0 Mb

     Self-consistent Calculation

     iteration #  1     ecut=    80.00 Ry     beta= 0.70
     Davidson diagonalization with overlap
     ethr =  1.00E-06,  avg # of iterations =  5.9

     Threshold (ethr) on eigenvalues was too large:
     Diagonalizing with lowered threshold

     Davidson diagonalization with overlap
     ethr =  1.11E-08,  avg # of iterations =  3.7

     total cpu time spent up to now is     1045.5 secs

     total energy              =    -469.46113242 Ry
     estimated scf accuracy    <       0.00000840 Ry

     iteration #  2     ecut=    80.00 Ry     beta= 0.70
     Davidson diagonalization with overlap
     ethr =  1.31E-08,  avg # of iterations =  2.0

     total cpu time spent up to now is     1061.5 secs

     total energy              =    -469.46113376 Ry
     estimated scf accuracy    <       0.00000097 Ry

     iteration #  3     ecut=    80.00 Ry     beta= 0.70
     Davidson diagonalization with overlap
     ethr =  1.51E-09,  avg # of iterations =  3.5

     total cpu time spent up to now is     1079.8 secs

     total energy              =    -469.46113401 Ry
     estimated scf accuracy    <       0.00000030 Ry

     iteration #  4     ecut=    80.00 Ry     beta= 0.70
     Davidson diagonalization with overlap
     ethr =  4.72E-10,  avg # of iterations =  3.4

     total cpu time spent up to now is     1097.3 secs

     End of self-consistent calculation

     Number of k-points >= 100: set verbosity='high' to print the bands.

     highest occupied level (ev):     6.9318

!    total energy              =    -469.46113408 Ry
     estimated scf accuracy    <       0.00000002 Ry

     The total energy is the sum of the following terms:
     one-electron contribution =    -228.07647623 Ry
     hartree contribution      =     145.17881645 Ry
     xc contribution           =     -90.96509935 Ry
     ewald contribution        =    -295.59837494 Ry

     convergence has been achieved in   4 iterations

     Forces acting on atoms (cartesian axes, Ry/au):

     atom    1 type  1   force =     0.00075963   -0.00085818   -0.00096870
     atom    2 type  1   force =     0.00016763    0.00078631    0.00117509
     atom    3 type  1   force =    -0.00035044   -0.00078362   -0.00121154
     atom    4 type  1   force =    -0.00075963    0.00085818    0.00096870
     atom    5 type  1   force =    -0.00016763   -0.00078631   -0.00117509
     atom    6 type  1   force =     0.00035044    0.00078362    0.00121154
     atom    7 type  2   force =     0.00189622    0.00026611    0.00017235
     atom    8 type  2   force =    -0.00189622   -0.00026611   -0.00017235
     atom    9 type  3   force =    -0.00087081    0.00056505   -0.00010251
     atom   10 type  3   force =     0.00087081   -0.00056505    0.00010251

     Total force =     0.004747     Total SCF correction =     0.000169


     Computing stress (Cartesian axis) and pressure

          total   stress  (Ry/bohr**3)                   (kbar)     P=      -73.70
  -0.00096224  -0.00003002   0.00003592         -141.55       -4.42        5.28
  -0.00003002  -0.00027461  -0.00013210           -4.42      -40.40      -19.43
   0.00003592  -0.00013210  -0.00026624            5.28      -19.43      -39.16

     Energy error            =      3.4E-05 Ry
     Gradient error          =      1.9E-03 Ry/Bohr

     number of scf cycles    =   8
     number of bfgs steps    =   7

     energy             old  =    -469.4610999986 Ry
     energy             new  =    -469.4611340847 Ry

     CASE: energy            _new < energy            _old

     new trust radius        =       0.0093798692 bohr
     new conv_thr            =       0.0000000100 Ry


ATOMIC_POSITIONS (angstrom)
O             7.0645946079        4.4240910319        0.8095949585
O             6.2328838314        3.9305802883        3.7759038773
O             7.9477431703        1.7703514027        2.2420473165
O             5.3504324093        1.4441275920        3.1491327836
O             6.1821431858        1.9376383357        0.1828238648
O             4.4672838468        4.0978672213        1.7166804256
Mg            4.5169241038        2.1152302732        1.4245881779
Mg            7.8981029134        3.7529883508        2.5341395642
Si            1.9806188891        0.9391800662        0.6316465677
Si           10.4344081280        4.9290385578        3.3270811744



     Writing config-only to output data dir ./Aknew_.save/
     NEW-OLD atomic charge density approx. for the potential

     Check: negative core charge=   -0.000002

     total cpu time spent up to now is     1111.6 secs

     per-process dynamical memory:   156.0 Mb

     Self-consistent Calculation

     iteration #  1     ecut=    80.00 Ry     beta= 0.70
     Davidson diagonalization with overlap
     ethr =  1.00E-06,  avg # of iterations =  6.0

     Threshold (ethr) on eigenvalues was too large:
     Diagonalizing with lowered threshold

     Davidson diagonalization with overlap
     ethr =  8.02E-09,  avg # of iterations =  3.3

     total cpu time spent up to now is     1153.3 secs

     total energy              =    -469.46116893 Ry
     estimated scf accuracy    <       0.00000606 Ry

     iteration #  2     ecut=    80.00 Ry     beta= 0.70
     Davidson diagonalization with overlap
     ethr =  9.47E-09,  avg # of iterations =  2.0

     total cpu time spent up to now is     1170.0 secs

     total energy              =    -469.46116996 Ry
     estimated scf accuracy    <       0.00000074 Ry

     iteration #  3     ecut=    80.00 Ry     beta= 0.70
     Davidson diagonalization with overlap
     ethr =  1.16E-09,  avg # of iterations =  3.8

     total cpu time spent up to now is     1189.5 secs

     total energy              =    -469.46117017 Ry
     estimated scf accuracy    <       0.00000019 Ry

     iteration #  4     ecut=    80.00 Ry     beta= 0.70
     Davidson diagonalization with overlap
     ethr =  3.02E-10,  avg # of iterations =  3.6

     total cpu time spent up to now is     1207.5 secs

     total energy              =    -469.46117022 Ry
     estimated scf accuracy    <       0.00000001 Ry

     iteration #  5     ecut=    80.00 Ry     beta= 0.70
     Davidson diagonalization with overlap
     ethr =  1.98E-11,  avg # of iterations =  4.3

     total cpu time spent up to now is     1226.2 secs

     End of self-consistent calculation

     Number of k-points >= 100: set verbosity='high' to print the bands.

     highest occupied level (ev):     6.9316

!    total energy              =    -469.46117022 Ry
     estimated scf accuracy    <          1.4E-09 Ry

     The total energy is the sum of the following terms:
     one-electron contribution =    -228.04936047 Ry
     hartree contribution      =     145.16756513 Ry
     xc contribution           =     -90.96653691 Ry
     ewald contribution        =    -295.61283797 Ry

     convergence has been achieved in   5 iterations

     Forces acting on atoms (cartesian axes, Ry/au):

     atom    1 type  1   force =     0.00063172   -0.00090626   -0.00096536
     atom    2 type  1   force =    -0.00018634    0.00033081    0.00092577
     atom    3 type  1   force =    -0.00013165   -0.00064455   -0.00101635
     atom    4 type  1   force =    -0.00063172    0.00090626    0.00096536
     atom    5 type  1   force =     0.00018634   -0.00033081   -0.00092577
     atom    6 type  1   force =     0.00013165    0.00064455    0.00101635
     atom    7 type  2   force =     0.00102491    0.00033542    0.00009373
     atom    8 type  2   force =    -0.00102491   -0.00033542   -0.00009373
     atom    9 type  3   force =    -0.00063396    0.00018153   -0.00021815
     atom   10 type  3   force =     0.00063396   -0.00018153    0.00021815

     Total force =     0.003542     Total SCF correction =     0.000092


     Computing stress (Cartesian axis) and pressure

          total   stress  (Ry/bohr**3)                   (kbar)     P=      -73.20
  -0.00095655  -0.00002905   0.00003540         -140.71       -4.27        5.21
  -0.00002905  -0.00027587  -0.00013544           -4.27      -40.58      -19.92
   0.00003540  -0.00013544  -0.00026039            5.21      -19.92      -38.30

     Energy error            =      3.6E-05 Ry
     Gradient error          =      1.0E-03 Ry/Bohr

     number of scf cycles    =   9
     number of bfgs steps    =   8

     energy             old  =    -469.4611340847 Ry
     energy             new  =    -469.4611702216 Ry

     CASE: energy            _new < energy            _old

     new trust radius        =       0.0097480494 bohr
     new conv_thr            =       0.0000000100 Ry


ATOMIC_POSITIONS (angstrom)
O             7.0653997617        4.4236448449        0.8083064317
O             6.2331601848        3.9321136095        3.7777957673
O             7.9464982325        1.7700366082        2.2407536355
O             5.3496272555        1.4445737790        3.1504213104
O             6.1818668324        1.9361050145        0.1809319748
O             4.4685287846        4.0981820158        1.7179741066
Mg            4.5220281295        2.1158675100        1.4249785774
Mg            7.8929988877        3.7523511140        2.5337491647
Si            1.9802581374        0.9398141694        0.6318641441
Si           10.4347688797        4.9284044546        3.3268635980



     Writing config-only to output data dir ./Aknew_.save/
     NEW-OLD atomic charge density approx. for the potential

     Check: negative core charge=   -0.000002

     total cpu time spent up to now is     1240.0 secs

     per-process dynamical memory:   156.0 Mb

     Self-consistent Calculation

     iteration #  1     ecut=    80.00 Ry     beta= 0.70
     Davidson diagonalization with overlap
     ethr =  1.00E-06,  avg # of iterations =  6.2

     Threshold (ethr) on eigenvalues was too large:
     Diagonalizing with lowered threshold

     Davidson diagonalization with overlap
     ethr =  1.50E-08,  avg # of iterations =  3.8

     total cpu time spent up to now is     1282.9 secs

     total energy              =    -469.46119378 Ry
     estimated scf accuracy    <       0.00001121 Ry

     iteration #  2     ecut=    80.00 Ry     beta= 0.70
     Davidson diagonalization with overlap
     ethr =  1.75E-08,  avg # of iterations =  2.0

     total cpu time spent up to now is     1298.8 secs

     total energy              =    -469.46119578 Ry
     estimated scf accuracy    <       0.00000077 Ry

     iteration #  3     ecut=    80.00 Ry     beta= 0.70
     Davidson diagonalization with overlap
     ethr =  1.21E-09,  avg # of iterations =  4.0

     total cpu time spent up to now is     1316.6 secs

     total energy              =    -469.46119603 Ry
     estimated scf accuracy    <       0.00000013 Ry

     iteration #  4     ecut=    80.00 Ry     beta= 0.70
     Davidson diagonalization with overlap
     ethr =  2.04E-10,  avg # of iterations =  3.8

     total cpu time spent up to now is     1334.3 secs

     total energy              =    -469.46119606 Ry
     estimated scf accuracy    <       0.00000001 Ry

     iteration #  5     ecut=    80.00 Ry     beta= 0.70
     Davidson diagonalization with overlap
     ethr =  1.73E-11,  avg # of iterations =  4.1

     total cpu time spent up to now is     1353.0 secs

     End of self-consistent calculation

     Number of k-points >= 100: set verbosity='high' to print the bands.

     highest occupied level (ev):     6.9306

!    total energy              =    -469.46119607 Ry
     estimated scf accuracy    <          2.7E-09 Ry

     The total energy is the sum of the following terms:
     one-electron contribution =    -228.00566852 Ry
     hartree contribution      =     145.14824689 Ry
     xc contribution           =     -90.96861055 Ry
     ewald contribution        =    -295.63516389 Ry

     convergence has been achieved in   5 iterations

     Forces acting on atoms (cartesian axes, Ry/au):

     atom    1 type  1   force =     0.00028313   -0.00045711   -0.00050537
     atom    2 type  1   force =    -0.00030836   -0.00019743    0.00032254
     atom    3 type  1   force =     0.00008507   -0.00018555   -0.00035878
     atom    4 type  1   force =    -0.00028313    0.00045711    0.00050537
     atom    5 type  1   force =     0.00030836    0.00019743   -0.00032254
     atom    6 type  1   force =    -0.00008507    0.00018555    0.00035878
     atom    7 type  2   force =     0.00004222    0.00042794   -0.00000942
     atom    8 type  2   force =    -0.00004222   -0.00042794    0.00000942
     atom    9 type  3   force =    -0.00007150   -0.00023056   -0.00017132
     atom   10 type  3   force =     0.00007150    0.00023056    0.00017132

     Total force =     0.001566     Total SCF correction =     0.000099


     Computing stress (Cartesian axis) and pressure

          total   stress  (Ry/bohr**3)                   (kbar)     P=      -72.41
  -0.00095160  -0.00002711   0.00003516         -139.99       -3.99        5.17
  -0.00002711  -0.00027376  -0.00013737           -3.99      -40.27      -20.21
   0.00003516  -0.00013737  -0.00025130            5.17      -20.21      -36.97

     Energy error            =      2.6E-05 Ry
     Gradient error          =      5.1E-04 Ry/Bohr

     bfgs converged in  10 scf cycles and   9 bfgs steps
     (criteria: energy <  1.0E-04 Ry, force <  1.0E-03 Ry/Bohr)

     End of BFGS Geometry Optimization

     Final energy             =    -469.4611960658 Ry

     File ./Aknew_.bfgs deleted, as requested
Begin final coordinates

ATOMIC_POSITIONS (angstrom)
O             7.0653997617        4.4236448449        0.8083064317
O             6.2331601848        3.9321136095        3.7777957673
O             7.9464982325        1.7700366082        2.2407536355
O             5.3496272555        1.4445737790        3.1504213104
O             6.1818668324        1.9361050145        0.1809319748
O             4.4685287846        4.0981820158        1.7179741066
Mg            4.5220281295        2.1158675100        1.4249785774
Mg            7.8929988877        3.7523511140        2.5337491647
Si            1.9802581374        0.9398141694        0.6318641441
Si           10.4347688797        4.9284044546        3.3268635980
End final coordinates



     Writing all to output data dir ./Aknew_.save/

     init_run     :      9.35s CPU      9.53s WALL (       1 calls)
     electrons    :   1207.11s CPU   1217.24s WALL (      10 calls)
     update_pot   :     25.53s CPU     25.64s WALL (       9 calls)
     forces       :     39.06s CPU     39.27s WALL (      10 calls)
     stress       :     70.92s CPU     71.20s WALL (      10 calls)

     Called by init_run:
     wfcinit      :      5.96s CPU      6.07s WALL (       1 calls)
     potinit      :      1.40s CPU      1.44s WALL (       1 calls)
     hinit0       :      1.92s CPU      1.93s WALL (       1 calls)

     Called by electrons:
     c_bands      :   1072.96s CPU   1080.74s WALL (      61 calls)
     sum_band     :    121.74s CPU    122.83s WALL (      61 calls)
     v_of_rho     :      9.64s CPU     10.89s WALL (      66 calls)
     newd         :      2.75s CPU      2.89s WALL (      66 calls)
     mix_rho      :      0.37s CPU      0.37s WALL (      61 calls)

     Called by c_bands:
     init_us_2    :     23.05s CPU     23.12s WALL (   16159 calls)
     init_us_2:cp :     22.97s CPU     23.07s WALL (   16159 calls)
     cegterg      :    976.55s CPU    984.12s WALL (    6893 calls)

     Called by *egterg:
     cdiaghg      :     41.54s CPU     41.78s WALL (   32013 calls)
     h_psi        :    687.30s CPU    694.03s WALL (   33708 calls)
     s_psi        :     34.88s CPU     34.97s WALL (   33708 calls)
     g_psi        :      4.25s CPU      4.27s WALL (   26702 calls)

     Called by h_psi:
     h_psi:calbec :     62.73s CPU     63.04s WALL (   33708 calls)
     vloc_psi     :    574.78s CPU    581.06s WALL (   33708 calls)
     add_vuspsi   :     39.70s CPU     39.82s WALL (   33708 calls)

     General routines
     calbec       :     87.86s CPU     88.27s WALL (   46251 calls)
     fft          :      6.37s CPU      6.62s WALL (    1102 calls)
     ffts         :      0.42s CPU      0.42s WALL (     127 calls)
     fftw         :    580.52s CPU    586.59s WALL ( 1660998 calls)
     interpolate  :      0.83s CPU      0.83s WALL (      66 calls)

     Parallel routines

     PWSCF        :  22m33.75s CPU  22m45.11s WALL


   This run was terminated on:  11:52:20   4Aug2025            

=------------------------------------------------------------------------------=
   JOB DONE.
=------------------------------------------------------------------------------=
