
     Program PWSCF v.7.0 starts on  4Aug2025 at 14:28:47 

     This program is part of the open-source Quantum ESPRESSO suite
     for quantum simulation of materials; please cite
         "P. Giannozzi et al., J. Phys.:Condens. Matter 21 395502 (2009);
         "P. Giannozzi et al., J. Phys.:Condens. Matter 29 465901 (2017);
         "P. Giannozzi et al., J. Chem. Phys. 152 154105 (2020);
          URL http://www.quantum-espresso.org", 
     in publications or presentations arising from this work. More details at
     http://www.quantum-espresso.org/quote

     Parallel version (MPI & OpenMP), running on      16 processor cores
     Number of MPI processes:                16
     Threads/MPI process:                     1

     MPI processes distributed on     1 nodes
     K-points division:     npool     =       4
     R & G space division:  proc/nbgrp/npool/nimage =       4
     4386 MiB available memory on the printing compute node when the environment starts

     Waiting for input...
     Reading input from standard input
Warning: card &CELL ignored
Warning: card    CELL_DYNAMICS    = 'BFGS' ignored
Warning: card    PRESS            = 150 ignored
Warning: card    PRESS_CONV_THR   = 0.05 ignored
Warning: card / ignored

     Current dimensions of program PWSCF are:
     Max number of different atomic species (ntypx) = 10
     Max number of k-points (npk) =  40000
     Max angular momentum in pseudopotentials (lmaxx) =  4
     file O.pbe-nl-rrkjus_psl.1.0.0.UPF: wavefunction(s)  2S renormalized
     file Mg.pbe-spnl-rrkjus_psl.1.0.0.UPF: wavefunction(s)  2P renormalized
     Message from routine setup:
     using ibrav=0 with symmetry is DISCOURAGED, use correct ibrav instead

     Subspace diagonalization in iterative solution of the eigenvalue problem:
     one sub-group per band group will be used
     scalapack distributed-memory algorithm (size of sub-group:  2*  2 procs)


     Parallelization info
     --------------------
     sticks:   dense  smooth     PW     G-vecs:    dense   smooth      PW
     Min         934     501    145                36380    14179    2246
     Max         935     502    146                36381    14180    2247
     Sum        3737    2005    583               145523    56719    8987

     Using Slab Decomposition



     bravais-lattice index     =            0
     lattice parameter (alat)  =       9.7502  a.u.
     unit-cell volume          =     586.5845 (a.u.)^3
     number of atoms/cell      =           10
     number of atomic types    =            3
     number of electrons       =        64.00
     number of Kohn-Sham states=           32
     kinetic-energy cutoff     =      80.0000  Ry
     charge density cutoff     =     600.0000  Ry
     scf convergence threshold =      1.0E-06
     mixing beta               =       0.7000
     number of iterations used =            8  plain     mixing
     energy convergence thresh.=      1.0E-04
     force convergence thresh. =      1.0E-03
     Exchange-correlation= PBE
                           (   1   4   3   4   0   0   0)
     nstep                     =           50


     celldm(1)=   9.750153  celldm(2)=   0.000000  celldm(3)=   0.000000
     celldm(4)=   0.000000  celldm(5)=   0.000000  celldm(6)=   0.000000

     crystal axes: (cart. coord. in units of alat)
               a(1) = (   1.000000   0.000000   0.000000 )  
               a(2) = (   0.598229   0.826108   0.000000 )  
               a(3) = (   0.598229   0.309219   0.766054 )  

     reciprocal axes: (cart. coord. in units 2 pi/alat)
               b(1) = (  1.000000 -0.724154 -0.488618 )  
               b(2) = (  0.000000  1.210495 -0.488618 )  
               b(3) = (  0.000000  0.000000  1.305391 )  


     PseudoPot. # 1 for O  read from file:
     /home/tim/espresso/pseudo/O.pbe-nl-rrkjus_psl.1.0.0.UPF
     MD5 check sum: 233c8028909f741e7889d61785a595bc
     Pseudo is Ultrasoft + core correction, Zval =  6.0
     Generated using 'atomic' code by A. Dal Corso  v.7.0
     Using radial grid of 1095 points,  4 beta functions with: 
                l(1) =   0
                l(2) =   0
                l(3) =   1
                l(4) =   1
     Q(r) pseudized with 0 coefficients 


     PseudoPot. # 2 for Mg read from file:
     /home/tim/espresso/pseudo/Mg.pbe-spnl-rrkjus_psl.1.0.0.UPF
     MD5 check sum: 37caad9c05fe2a5f639d8b65b442f5f9
     Pseudo is Ultrasoft + core correction, Zval = 10.0
     Generated using 'atomic' code by A. Dal Corso  v.7.0
     Using radial grid of 1129 points,  4 beta functions with: 
                l(1) =   0
                l(2) =   0
                l(3) =   1
                l(4) =   1
     Q(r) pseudized with 0 coefficients 


     PseudoPot. # 3 for Si read from file:
     /home/tim/espresso/pseudo/Si.pbe-nl-rrkjus_psl.1.0.0.UPF
     MD5 check sum: ceeb670d53204f1f4f48a0a0dd9ca3d4
     Pseudo is Ultrasoft + core correction, Zval =  4.0
     Generated using 'atomic' code by A. Dal Corso  v.7.0
     Using radial grid of 1141 points,  4 beta functions with: 
                l(1) =   0
                l(2) =   0
                l(3) =   1
                l(4) =   1
     Q(r) pseudized with 0 coefficients 


     atomic species   valence    mass     pseudopotential
        O              6.00    15.99900     O ( 1.00)
        Mg            10.00    24.30500     Mg( 1.00)
        Si             4.00    28.08500     Si( 1.00)

      2 Sym. Ops., with inversion, found



   Cartesian axes

     site n.     atom                  positions (alat units)
         1           O   tau(   1) = (   1.2556278   0.8518804   0.1563721  )
         2           O   tau(   2) = (   1.1117127   0.7597838   0.7314214  )
         3           O   tau(   3) = (   1.4133075   0.3425134   0.4307744  )
         4           O   tau(   4) = (   0.9408310   0.2834463   0.6096818  )
         5           O   tau(   5) = (   1.0847462   0.3755429   0.0346325  )
         6           O   tau(   6) = (   0.7831513   0.7928133   0.3352795  )
         7           Mg  tau(   7) = (   0.7915657   0.4091521   0.2760725  )
         8           Mg  tau(   8) = (   1.4048931   0.7261746   0.4899813  )
         9           Si  tau(   9) = (   0.3466428   0.1791760   0.1208978  )
        10           Si  tau(  10) = (   1.8498160   0.9561506   0.6451561  )

     number of k points=   504

     Number of k-points >= 100: set verbosity='high' to print them.

     Dense  grid:   145523 G-vectors     FFT dimensions: (  80,  80,  80)

     Smooth grid:    56719 G-vectors     FFT dimensions: (  60,  60,  60)

     Estimated max dynamical RAM per process >     148.17 MB

     Estimated total dynamical RAM >       2.21 GB

     Check: negative core charge=   -0.000002

     Initial potential from superposition of free atoms

     starting charge      63.9970, renormalised to      64.0000
     Starting wfcs are   42 randomized atomic wfcs

     total cpu time spent up to now is        9.9 secs

     per-process dynamical memory:   147.3 Mb

     Self-consistent Calculation

     iteration #  1     ecut=    80.00 Ry     beta= 0.70
     Davidson diagonalization with overlap
     ethr =  1.00E-02,  avg # of iterations =  2.0

     total cpu time spent up to now is       25.7 secs

     total energy              =    -468.53687596 Ry
     estimated scf accuracy    <       2.07870504 Ry

     iteration #  2     ecut=    80.00 Ry     beta= 0.70
     Davidson diagonalization with overlap
     ethr =  3.25E-03,  avg # of iterations =  3.0

     total cpu time spent up to now is       44.5 secs

     total energy              =    -469.24631193 Ry
     estimated scf accuracy    <       1.26965357 Ry

     iteration #  3     ecut=    80.00 Ry     beta= 0.70
     Davidson diagonalization with overlap
     ethr =  1.98E-03,  avg # of iterations =  2.0

     total cpu time spent up to now is       60.6 secs

     total energy              =    -469.42237824 Ry
     estimated scf accuracy    <       0.04554340 Ry

     iteration #  4     ecut=    80.00 Ry     beta= 0.70
     Davidson diagonalization with overlap
     ethr =  7.12E-05,  avg # of iterations =  5.2

     total cpu time spent up to now is       85.9 secs

     total energy              =    -469.46928076 Ry
     estimated scf accuracy    <       0.05864942 Ry

     iteration #  5     ecut=    80.00 Ry     beta= 0.70
     Davidson diagonalization with overlap
     ethr =  7.12E-05,  avg # of iterations =  2.0

     total cpu time spent up to now is      100.0 secs

     total energy              =    -469.46331784 Ry
     estimated scf accuracy    <       0.02056939 Ry

     iteration #  6     ecut=    80.00 Ry     beta= 0.70
     Davidson diagonalization with overlap
     ethr =  3.21E-05,  avg # of iterations =  2.0

     total cpu time spent up to now is      115.7 secs

     total energy              =    -469.46633511 Ry
     estimated scf accuracy    <       0.00101828 Ry

     iteration #  7     ecut=    80.00 Ry     beta= 0.70
     Davidson diagonalization with overlap
     ethr =  1.59E-06,  avg # of iterations =  5.5

     total cpu time spent up to now is      139.0 secs

     total energy              =    -469.46736892 Ry
     estimated scf accuracy    <       0.00016936 Ry

     iteration #  8     ecut=    80.00 Ry     beta= 0.70
     Davidson diagonalization with overlap
     ethr =  2.65E-07,  avg # of iterations =  3.0

     total cpu time spent up to now is      157.3 secs

     total energy              =    -469.46708710 Ry
     estimated scf accuracy    <       0.00091578 Ry

     iteration #  9     ecut=    80.00 Ry     beta= 0.70
     Davidson diagonalization with overlap
     ethr =  2.65E-07,  avg # of iterations =  3.0

     total cpu time spent up to now is      176.4 secs

     total energy              =    -469.46712122 Ry
     estimated scf accuracy    <       0.00010714 Ry

     iteration # 10     ecut=    80.00 Ry     beta= 0.70
     Davidson diagonalization with overlap
     ethr =  1.67E-07,  avg # of iterations =  2.0

     total cpu time spent up to now is      191.5 secs

     total energy              =    -469.46714404 Ry
     estimated scf accuracy    <       0.00000139 Ry

     iteration # 11     ecut=    80.00 Ry     beta= 0.70
     Davidson diagonalization with overlap
     ethr =  2.17E-09,  avg # of iterations =  5.6

     total cpu time spent up to now is      215.0 secs

     total energy              =    -469.46714591 Ry
     estimated scf accuracy    <       0.00000131 Ry

     iteration # 12     ecut=    80.00 Ry     beta= 0.70
     Davidson diagonalization with overlap
     ethr =  2.05E-09,  avg # of iterations =  1.1

     total cpu time spent up to now is      227.9 secs

     End of self-consistent calculation

     Number of k-points >= 100: set verbosity='high' to print the bands.

     highest occupied level (ev):     8.0710

!    total energy              =    -469.46714553 Ry
     estimated scf accuracy    <       0.00000053 Ry

     The total energy is the sum of the following terms:
     one-electron contribution =    -214.11238710 Ry
     hartree contribution      =     141.21304539 Ry
     xc contribution           =     -91.48813958 Ry
     ewald contribution        =    -305.07966424 Ry

     convergence has been achieved in  12 iterations

     Forces acting on atoms (cartesian axes, Ry/au):

     atom    1 type  1   force =     0.01509450   -0.00160441    0.00351228
     atom    2 type  1   force =     0.02559677    0.00016978    0.00209713
     atom    3 type  1   force =     0.00858083    0.00813743   -0.00058315
     atom    4 type  1   force =    -0.01509450    0.00160441   -0.00351228
     atom    5 type  1   force =    -0.02559677   -0.00016978   -0.00209713
     atom    6 type  1   force =    -0.00858083   -0.00813743    0.00058315
     atom    7 type  2   force =    -0.00016332    0.00202916    0.00357783
     atom    8 type  2   force =     0.00016332   -0.00202916   -0.00357783
     atom    9 type  3   force =    -0.00236120   -0.00649551    0.00050300
     atom   10 type  3   force =     0.00236120    0.00649551   -0.00050300

     Total force =     0.047064     Total SCF correction =     0.001326


     Computing stress (Cartesian axis) and pressure

          total   stress  (Ry/bohr**3)                   (kbar)     P=       93.17
   0.00110206   0.00003044  -0.00001697          162.12        4.48       -2.50
   0.00003044   0.00038323   0.00003687            4.48       56.37        5.42
  -0.00001697   0.00003687   0.00041485           -2.50        5.42       61.03


     BFGS Geometry Optimization
     Energy error            =      0.0E+00 Ry
     Gradient error          =      2.6E-02 Ry/Bohr

     number of scf cycles    =   1
     number of bfgs steps    =   0

     energy             new  =    -469.4671455329 Ry

     new trust radius        =       0.0256830993 bohr
     new conv_thr            =       0.0000010000 Ry


ATOMIC_POSITIONS (angstrom)
O             6.4864735161        4.3944782616        0.8086696506
O             5.7494922476        3.9202389578        3.7749214596
O             7.2965841234        1.7715240715        2.2222973276
O             4.8462853027        1.4633066955        3.1438304690
O             5.5832665711        1.9375459993        0.1775786600
O             4.0361746954        4.0862608856        1.7302027919
Mg            4.0840434490        2.1121179677        1.4263058513
Mg            7.2487153697        3.7456669894        2.5261942683
Si            1.7872743374        0.9210320547        0.6240455028
Si            9.5454844813        4.9367529024        3.3284546168



     Writing config-only to output data dir ./Aknew_.save/
     NEW-OLD atomic charge density approx. for the potential

     Check: negative core charge=   -0.000002

     total cpu time spent up to now is      241.4 secs

     per-process dynamical memory:   156.9 Mb

     Self-consistent Calculation

     iteration #  1     ecut=    80.00 Ry     beta= 0.70
     Davidson diagonalization with overlap
     ethr =  1.00E-06,  avg # of iterations =  4.8

     total cpu time spent up to now is      267.4 secs

     total energy              =    -469.46838135 Ry
     estimated scf accuracy    <       0.00055720 Ry

     iteration #  2     ecut=    80.00 Ry     beta= 0.70
     Davidson diagonalization with overlap
     ethr =  8.71E-07,  avg # of iterations =  2.0

     total cpu time spent up to now is      282.6 secs

     total energy              =    -469.46854960 Ry
     estimated scf accuracy    <       0.00008756 Ry

     iteration #  3     ecut=    80.00 Ry     beta= 0.70
     Davidson diagonalization with overlap
     ethr =  1.37E-07,  avg # of iterations =  3.1

     total cpu time spent up to now is      299.5 secs

     total energy              =    -469.46857008 Ry
     estimated scf accuracy    <       0.00000139 Ry

     iteration #  4     ecut=    80.00 Ry     beta= 0.70
     Davidson diagonalization with overlap
     ethr =  2.17E-09,  avg # of iterations =  7.1

     total cpu time spent up to now is      331.9 secs

     End of self-consistent calculation

     Number of k-points >= 100: set verbosity='high' to print the bands.

     highest occupied level (ev):     8.0544

!    total energy              =    -469.46857280 Ry
     estimated scf accuracy    <       0.00000040 Ry

     The total energy is the sum of the following terms:
     one-electron contribution =    -214.30377274 Ry
     hartree contribution      =     141.32910690 Ry
     xc contribution           =     -91.46301227 Ry
     ewald contribution        =    -305.03089469 Ry

     convergence has been achieved in   4 iterations

     Forces acting on atoms (cartesian axes, Ry/au):

     atom    1 type  1   force =     0.00650102   -0.00247070   -0.00111303
     atom    2 type  1   force =     0.00631263    0.00024196    0.00248942
     atom    3 type  1   force =     0.00256644    0.00076101   -0.00190975
     atom    4 type  1   force =    -0.00650102    0.00247070    0.00111303
     atom    5 type  1   force =    -0.00631263   -0.00024196   -0.00248942
     atom    6 type  1   force =    -0.00256644   -0.00076101    0.00190975
     atom    7 type  2   force =    -0.00185245    0.00187596    0.00340653
     atom    8 type  2   force =     0.00185245   -0.00187596   -0.00340653
     atom    9 type  3   force =    -0.00382926   -0.00131036   -0.00148979
     atom   10 type  3   force =     0.00382926    0.00131036    0.00148979

     Total force =     0.016952     Total SCF correction =     0.003249
     SCF correction compared to forces is large: reduce conv_thr to get better values


     Computing stress (Cartesian axis) and pressure

          total   stress  (Ry/bohr**3)                   (kbar)     P=       84.07
   0.00097031   0.00001531  -0.00004165          142.74        2.25       -6.13
   0.00001531   0.00034884   0.00004194            2.25       51.32        6.17
  -0.00004165   0.00004194   0.00039537           -6.13        6.17       58.16

     Energy error            =      1.4E-03 Ry
     Gradient error          =      6.5E-03 Ry/Bohr

     number of scf cycles    =   2
     number of bfgs steps    =   1

     energy             old  =    -469.4671455329 Ry
     energy             new  =    -469.4685727975 Ry

     CASE: energy            _new < energy            _old

     new trust radius        =       0.0117534382 bohr
     new conv_thr            =       0.0000000650 Ry


ATOMIC_POSITIONS (angstrom)
O             6.4920391049        4.3925495703        0.8079919359
O             5.7553902979        3.9204284067        3.7768864476
O             7.2988996108        1.7724631056        2.2208361839
O             4.8407197139        1.4652353868        3.1445081837
O             5.5773685208        1.9373565504        0.1756136720
O             4.0338592080        4.0853218515        1.7316639356
Mg            4.0826443047        2.1136189867        1.4290267092
Mg            7.2501145140        3.7441659704        2.5234734104
Si            1.7842907845        0.9197543954        0.6229489013
Si            9.5484680342        4.9380305617        3.3295512183



     Writing config-only to output data dir ./Aknew_.save/
     NEW-OLD atomic charge density approx. for the potential

     Check: negative core charge=   -0.000002

     total cpu time spent up to now is      344.5 secs

     per-process dynamical memory:   156.9 Mb

     Self-consistent Calculation

     iteration #  1     ecut=    80.00 Ry     beta= 0.70
     Davidson diagonalization with overlap
     ethr =  1.00E-06,  avg # of iterations =  6.5

     total cpu time spent up to now is      370.4 secs

     total energy              =    -469.46880887 Ry
     estimated scf accuracy    <       0.00012279 Ry

     iteration #  2     ecut=    80.00 Ry     beta= 0.70
     Davidson diagonalization with overlap
     ethr =  1.92E-07,  avg # of iterations =  2.5

     total cpu time spent up to now is      388.5 secs

     total energy              =    -469.46884645 Ry
     estimated scf accuracy    <       0.00001514 Ry

     iteration #  3     ecut=    80.00 Ry     beta= 0.70
     Davidson diagonalization with overlap
     ethr =  2.37E-08,  avg # of iterations =  3.7

     total cpu time spent up to now is      406.4 secs

     total energy              =    -469.46885125 Ry
     estimated scf accuracy    <       0.00000048 Ry

     iteration #  4     ecut=    80.00 Ry     beta= 0.70
     Davidson diagonalization with overlap
     ethr =  7.49E-10,  avg # of iterations =  4.1

     total cpu time spent up to now is      425.7 secs

     total energy              =    -469.46885141 Ry
     estimated scf accuracy    <       0.00000009 Ry

     iteration #  5     ecut=    80.00 Ry     beta= 0.70
     Davidson diagonalization with overlap
     ethr =  1.44E-10,  avg # of iterations =  3.3

     total cpu time spent up to now is      444.1 secs

     End of self-consistent calculation

     Number of k-points >= 100: set verbosity='high' to print the bands.

     highest occupied level (ev):     8.0498

!    total energy              =    -469.46885143 Ry
     estimated scf accuracy    <       0.00000002 Ry

     The total energy is the sum of the following terms:
     one-electron contribution =    -214.35589090 Ry
     hartree contribution      =     141.36452672 Ry
     xc contribution           =     -91.45215870 Ry
     ewald contribution        =    -305.02532855 Ry

     convergence has been achieved in   5 iterations

     Forces acting on atoms (cartesian axes, Ry/au):

     atom    1 type  1   force =     0.00135331   -0.00150041   -0.00230891
     atom    2 type  1   force =    -0.00020794   -0.00016013    0.00152624
     atom    3 type  1   force =    -0.00020530   -0.00212017   -0.00190181
     atom    4 type  1   force =    -0.00135331    0.00150041    0.00230891
     atom    5 type  1   force =     0.00020794    0.00016013   -0.00152624
     atom    6 type  1   force =     0.00020530    0.00212017    0.00190181
     atom    7 type  2   force =    -0.00175385    0.00060461    0.00081207
     atom    8 type  2   force =     0.00175385   -0.00060461   -0.00081207
     atom    9 type  3   force =    -0.00218364   -0.00005748   -0.00133327
     atom   10 type  3   force =     0.00218364    0.00005748    0.00133327

     Total force =     0.007825     Total SCF correction =     0.000144


     Computing stress (Cartesian axis) and pressure

          total   stress  (Ry/bohr**3)                   (kbar)     P=       80.07
   0.00090366   0.00000801  -0.00004794          132.93        1.18       -7.05
   0.00000801   0.00034214   0.00004469            1.18       50.33        6.57
  -0.00004794   0.00004469   0.00038705           -7.05        6.57       56.94

     Energy error            =      2.8E-04 Ry
     Gradient error          =      2.3E-03 Ry/Bohr

     number of scf cycles    =   3
     number of bfgs steps    =   2

     energy             old  =    -469.4685727975 Ry
     energy             new  =    -469.4688514314 Ry

     CASE: energy            _new < energy            _old

     new trust radius        =       0.0056852453 bohr
     new conv_thr            =       0.0000000231 Ry


ATOMIC_POSITIONS (angstrom)
O             6.4942253508        4.3911997818        0.8064268526
O             5.7568830984        3.9203512854        3.7782743465
O             7.2993556338        1.7714009292        2.2193104928
O             4.8385334680        1.4665851753        3.1460732670
O             5.5758757203        1.9374336717        0.1742257731
O             4.0334031850        4.0863840279        1.7331896267
Mg            4.0812415617        2.1143089832        1.4300803797
Mg            7.2515172570        3.7434759739        2.5224197399
Si            1.7823003569        0.9193314859        0.6218972926
Si            9.5504584618        4.9384534712        3.3306028270



     Writing config-only to output data dir ./Aknew_.save/
     NEW-OLD atomic charge density approx. for the potential

     Check: negative core charge=   -0.000002

     total cpu time spent up to now is      456.7 secs

     per-process dynamical memory:   156.9 Mb

     Self-consistent Calculation

     iteration #  1     ecut=    80.00 Ry     beta= 0.70
     Davidson diagonalization with overlap
     ethr =  1.00E-06,  avg # of iterations =  4.5

     Threshold (ethr) on eigenvalues was too large:
     Diagonalizing with lowered threshold

     Davidson diagonalization with overlap
     ethr =  2.78E-08,  avg # of iterations =  4.7

     total cpu time spent up to now is      499.2 secs

     total energy              =    -469.46891366 Ry
     estimated scf accuracy    <       0.00002106 Ry

     iteration #  2     ecut=    80.00 Ry     beta= 0.70
     Davidson diagonalization with overlap
     ethr =  3.29E-08,  avg # of iterations =  2.0

     total cpu time spent up to now is      516.2 secs

     total energy              =    -469.46891717 Ry
     estimated scf accuracy    <       0.00000092 Ry

     iteration #  3     ecut=    80.00 Ry     beta= 0.70
     Davidson diagonalization with overlap
     ethr =  1.43E-09,  avg # of iterations =  3.4

     total cpu time spent up to now is      533.7 secs

     total energy              =    -469.46891740 Ry
     estimated scf accuracy    <       0.00000015 Ry

     iteration #  4     ecut=    80.00 Ry     beta= 0.70
     Davidson diagonalization with overlap
     ethr =  2.36E-10,  avg # of iterations =  3.2

     total cpu time spent up to now is      550.8 secs

     End of self-consistent calculation

     Number of k-points >= 100: set verbosity='high' to print the bands.

     highest occupied level (ev):     8.0496

!    total energy              =    -469.46891744 Ry
     estimated scf accuracy    <       0.00000002 Ry

     The total energy is the sum of the following terms:
     one-electron contribution =    -214.34974775 Ry
     hartree contribution      =     141.36331554 Ry
     xc contribution           =     -91.45110178 Ry
     ewald contribution        =    -305.03138345 Ry

     convergence has been achieved in   4 iterations

     Forces acting on atoms (cartesian axes, Ry/au):

     atom    1 type  1   force =    -0.00001418   -0.00062349   -0.00142303
     atom    2 type  1   force =    -0.00102697   -0.00030553    0.00063505
     atom    3 type  1   force =    -0.00055312   -0.00172421   -0.00135344
     atom    4 type  1   force =     0.00001418    0.00062349    0.00142303
     atom    5 type  1   force =     0.00102697    0.00030553   -0.00063505
     atom    6 type  1   force =     0.00055312    0.00172421    0.00135344
     atom    7 type  2   force =    -0.00113622    0.00026682    0.00009772
     atom    8 type  2   force =     0.00113622   -0.00026682   -0.00009772
     atom    9 type  3   force =    -0.00083150    0.00016722   -0.00059756
     atom   10 type  3   force =     0.00083150   -0.00016722    0.00059756

     Total force =     0.004801     Total SCF correction =     0.000180


     Computing stress (Cartesian axis) and pressure

          total   stress  (Ry/bohr**3)                   (kbar)     P=       79.79
   0.00088742   0.00000872  -0.00004615          130.54        1.28       -6.79
   0.00000872   0.00034970   0.00004854            1.28       51.44        7.14
  -0.00004615   0.00004854   0.00039015           -6.79        7.14       57.39

     Energy error            =      6.6E-05 Ry
     Gradient error          =      1.7E-03 Ry/Bohr

     number of scf cycles    =   4
     number of bfgs steps    =   3

     energy             old  =    -469.4688514314 Ry
     energy             new  =    -469.4689174373 Ry

     CASE: energy            _new < energy            _old

     new trust radius        =       0.0041970744 bohr
     new conv_thr            =       0.0000000100 Ry


ATOMIC_POSITIONS (angstrom)
O             6.4953062375        4.3902215567        0.8048757648
O             5.7571605486        3.9200786644        3.7792829784
O             7.2992743426        1.7698775560        2.2176963213
O             4.8374525813        1.4675634004        3.1476243548
O             5.5755982701        1.9377062927        0.1732171412
O             4.0334844762        4.0879074011        1.7348037982
Mg            4.0798581680        2.1148194503        1.4306201018
Mg            7.2529006507        3.7429655068        2.5218800178
Si            1.7809277436        0.9191824275        0.6210968042
Si            9.5518310751        4.9386025296        3.3314033154



     Writing config-only to output data dir ./Aknew_.save/
     NEW-OLD atomic charge density approx. for the potential

     Check: negative core charge=   -0.000002

     total cpu time spent up to now is      564.1 secs

     per-process dynamical memory:   156.9 Mb

     Self-consistent Calculation

     iteration #  1     ecut=    80.00 Ry     beta= 0.70
     Davidson diagonalization with overlap
     ethr =  1.00E-06,  avg # of iterations =  3.0

     Threshold (ethr) on eigenvalues was too large:
     Diagonalizing with lowered threshold

     Davidson diagonalization with overlap
     ethr =  1.75E-08,  avg # of iterations =  6.0

     total cpu time spent up to now is      608.6 secs

     total energy              =    -469.46893909 Ry
     estimated scf accuracy    <       0.00001377 Ry

     iteration #  2     ecut=    80.00 Ry     beta= 0.70
     Davidson diagonalization with overlap
     ethr =  2.15E-08,  avg # of iterations =  2.0

     total cpu time spent up to now is      624.2 secs

     total energy              =    -469.46894146 Ry
     estimated scf accuracy    <       0.00000085 Ry

     iteration #  3     ecut=    80.00 Ry     beta= 0.70
     Davidson diagonalization with overlap
     ethr =  1.32E-09,  avg # of iterations =  2.3

     total cpu time spent up to now is      640.5 secs

     total energy              =    -469.46894166 Ry
     estimated scf accuracy    <       0.00000017 Ry

     iteration #  4     ecut=    80.00 Ry     beta= 0.70
     Davidson diagonalization with overlap
     ethr =  2.58E-10,  avg # of iterations =  2.7

     total cpu time spent up to now is      658.9 secs

     total energy              =    -469.46894170 Ry
     estimated scf accuracy    <       0.00000001 Ry

     iteration #  5     ecut=    80.00 Ry     beta= 0.70
     Davidson diagonalization with overlap
     ethr =  1.74E-11,  avg # of iterations =  4.8

     total cpu time spent up to now is      681.1 secs

     End of self-consistent calculation

     Number of k-points >= 100: set verbosity='high' to print the bands.

     highest occupied level (ev):     8.0505

!    total energy              =    -469.46894171 Ry
     estimated scf accuracy    <          1.1E-09 Ry

     The total energy is the sum of the following terms:
     one-electron contribution =    -214.33712633 Ry
     hartree contribution      =     141.35607773 Ry
     xc contribution           =     -91.45244611 Ry
     ewald contribution        =    -305.03544699 Ry

     convergence has been achieved in   5 iterations

     Forces acting on atoms (cartesian axes, Ry/au):

     atom    1 type  1   force =    -0.00023251    0.00004787   -0.00020355
     atom    2 type  1   force =    -0.00045572   -0.00025012   -0.00014336
     atom    3 type  1   force =    -0.00022590   -0.00043157   -0.00052362
     atom    4 type  1   force =     0.00023251   -0.00004787    0.00020355
     atom    5 type  1   force =     0.00045572    0.00025012    0.00014336
     atom    6 type  1   force =     0.00022590    0.00043157    0.00052362
     atom    7 type  2   force =    -0.00034935    0.00010699   -0.00026928
     atom    8 type  2   force =     0.00034935   -0.00010699    0.00026928
     atom    9 type  3   force =     0.00016094    0.00016957    0.00003791
     atom   10 type  3   force =    -0.00016094   -0.00016957   -0.00003791

     Total force =     0.001525     Total SCF correction =     0.000112


     Computing stress (Cartesian axis) and pressure

          total   stress  (Ry/bohr**3)                   (kbar)     P=       80.23
   0.00088394   0.00001185  -0.00004260          130.03        1.74       -6.27
   0.00001185   0.00035863   0.00005237            1.74       52.76        7.70
  -0.00004260   0.00005237   0.00039358           -6.27        7.70       57.90

     Energy error            =      2.4E-05 Ry
     Gradient error          =      5.2E-04 Ry/Bohr

     bfgs converged in   5 scf cycles and   4 bfgs steps
     (criteria: energy <  1.0E-04 Ry, force <  1.0E-03 Ry/Bohr)

     End of BFGS Geometry Optimization

     Final energy             =    -469.4689417059 Ry

     File ./Aknew_.bfgs deleted, as requested
Begin final coordinates

ATOMIC_POSITIONS (angstrom)
O             6.4953062375        4.3902215567        0.8048757648
O             5.7571605486        3.9200786644        3.7792829784
O             7.2992743426        1.7698775560        2.2176963213
O             4.8374525813        1.4675634004        3.1476243548
O             5.5755982701        1.9377062927        0.1732171412
O             4.0334844762        4.0879074011        1.7348037982
Mg            4.0798581680        2.1148194503        1.4306201018
Mg            7.2529006507        3.7429655068        2.5218800178
Si            1.7809277436        0.9191824275        0.6210968042
Si            9.5518310751        4.9386025296        3.3314033154
End final coordinates



     Writing all to output data dir ./Aknew_.save/

     init_run     :      8.38s CPU      8.58s WALL (       1 calls)
     electrons    :    613.75s CPU    619.28s WALL (       5 calls)
     update_pot   :     10.21s CPU     10.26s WALL (       4 calls)
     forces       :     17.33s CPU     17.41s WALL (       5 calls)
     stress       :     33.73s CPU     33.87s WALL (       5 calls)

     Called by init_run:
     wfcinit      :      5.18s CPU      5.31s WALL (       1 calls)
     potinit      :      1.11s CPU      1.15s WALL (       1 calls)
     hinit0       :      2.02s CPU      2.03s WALL (       1 calls)

     Called by electrons:
     c_bands      :    542.86s CPU    547.25s WALL (      32 calls)
     sum_band     :     65.47s CPU     66.06s WALL (      32 calls)
     v_of_rho     :      4.03s CPU      4.59s WALL (      35 calls)
     newd         :      1.18s CPU      1.26s WALL (      35 calls)
     mix_rho      :      0.19s CPU      0.19s WALL (      32 calls)

     Called by c_bands:
     init_us_2    :     12.27s CPU     12.31s WALL (    9450 calls)
     init_us_2:cp :     12.23s CPU     12.28s WALL (    9450 calls)
     cegterg      :    476.22s CPU    480.48s WALL (    4032 calls)

     Called by *egterg:
     cdiaghg      :     20.10s CPU     20.24s WALL (   17499 calls)
     h_psi        :    342.26s CPU    346.07s WALL (   18381 calls)
     s_psi        :     16.88s CPU     16.94s WALL (   18381 calls)
     g_psi        :      2.16s CPU      2.17s WALL (   14223 calls)

     Called by h_psi:
     h_psi:calbec :     29.65s CPU     29.81s WALL (   18381 calls)
     vloc_psi     :    287.93s CPU    291.51s WALL (   18381 calls)
     add_vuspsi   :     19.64s CPU     19.70s WALL (   18381 calls)

     General routines
     calbec       :     41.72s CPU     41.94s WALL (   25563 calls)
     fft          :      2.62s CPU      2.75s WALL (     576 calls)
     ffts         :      0.25s CPU      0.25s WALL (      67 calls)
     fftw         :    290.32s CPU    293.70s WALL (  954604 calls)
     interpolate  :      0.41s CPU      0.41s WALL (      35 calls)

     Parallel routines

     PWSCF        :  11m25.65s CPU  11m32.01s WALL


   This run was terminated on:  14:40:19   4Aug2025            

=------------------------------------------------------------------------------=
   JOB DONE.
=------------------------------------------------------------------------------=
