
     Program PWSCF v.7.0 starts on  4Aug2025 at 13:24: 3 

     This program is part of the open-source Quantum ESPRESSO suite
     for quantum simulation of materials; please cite
         "P. Giannozzi et al., J. Phys.:Condens. Matter 21 395502 (2009);
         "P. Giannozzi et al., J. Phys.:Condens. Matter 29 465901 (2017);
         "P. Giannozzi et al., J. Chem. Phys. 152 154105 (2020);
          URL http://www.quantum-espresso.org", 
     in publications or presentations arising from this work. More details at
     http://www.quantum-espresso.org/quote

     Parallel version (MPI & OpenMP), running on      16 processor cores
     Number of MPI processes:                16
     Threads/MPI process:                     1

     MPI processes distributed on     1 nodes
     K-points division:     npool     =       4
     R & G space division:  proc/nbgrp/npool/nimage =       4
     4138 MiB available memory on the printing compute node when the environment starts

     Waiting for input...
     Reading input from standard input
Warning: card &CELL ignored
Warning: card    CELL_DYNAMICS    = 'BFGS' ignored
Warning: card    PRESS            = 150 ignored
Warning: card    PRESS_CONV_THR   = 0.05 ignored
Warning: card / ignored

     Current dimensions of program PWSCF are:
     Max number of different atomic species (ntypx) = 10
     Max number of k-points (npk) =  40000
     Max angular momentum in pseudopotentials (lmaxx) =  4
     file O.pbe-nl-rrkjus_psl.1.0.0.UPF: wavefunction(s)  2S renormalized
     file Mg.pbe-spnl-rrkjus_psl.1.0.0.UPF: wavefunction(s)  2P renormalized
     Message from routine setup:
     using ibrav=0 with symmetry is DISCOURAGED, use correct ibrav instead

     Subspace diagonalization in iterative solution of the eigenvalue problem:
     one sub-group per band group will be used
     scalapack distributed-memory algorithm (size of sub-group:  2*  2 procs)


     Parallelization info
     --------------------
     sticks:   dense  smooth     PW     G-vecs:    dense   smooth      PW
     Min        1025     546    161                39768    15492    2479
     Max        1026     547    162                39769    15493    2480
     Sum        4101    2187    647               159073    61971    9917

     Using Slab Decomposition



     bravais-lattice index     =            0
     lattice parameter (alat)  =      10.6548  a.u.
     unit-cell volume          =     641.0098 (a.u.)^3
     number of atoms/cell      =           10
     number of atomic types    =            3
     number of electrons       =        64.00
     number of Kohn-Sham states=           32
     kinetic-energy cutoff     =      80.0000  Ry
     charge density cutoff     =     600.0000  Ry
     scf convergence threshold =      1.0E-06
     mixing beta               =       0.7000
     number of iterations used =            8  plain     mixing
     energy convergence thresh.=      1.0E-04
     force convergence thresh. =      1.0E-03
     Exchange-correlation= PBE
                           (   1   4   3   4   0   0   0)
     nstep                     =           50


     celldm(1)=  10.654807  celldm(2)=   0.000000  celldm(3)=   0.000000
     celldm(4)=   0.000000  celldm(5)=   0.000000  celldm(6)=   0.000000

     crystal axes: (cart. coord. in units of alat)
               a(1) = (   1.000000   0.000000   0.000000 )  
               a(2) = (   0.598229   0.755967   0.000000 )  
               a(3) = (   0.598229   0.282964   0.701012 )  

     reciprocal axes: (cart. coord. in units 2 pi/alat)
               b(1) = (  1.000000 -0.791343 -0.533954 )  
               b(2) = (  0.000000  1.322809 -0.533954 )  
               b(3) = (  0.000000  0.000000  1.426510 )  


     PseudoPot. # 1 for O  read from file:
     /home/tim/espresso/pseudo/O.pbe-nl-rrkjus_psl.1.0.0.UPF
     MD5 check sum: 233c8028909f741e7889d61785a595bc
     Pseudo is Ultrasoft + core correction, Zval =  6.0
     Generated using 'atomic' code by A. Dal Corso  v.7.0
     Using radial grid of 1095 points,  4 beta functions with: 
                l(1) =   0
                l(2) =   0
                l(3) =   1
                l(4) =   1
     Q(r) pseudized with 0 coefficients 


     PseudoPot. # 2 for Mg read from file:
     /home/tim/espresso/pseudo/Mg.pbe-spnl-rrkjus_psl.1.0.0.UPF
     MD5 check sum: 37caad9c05fe2a5f639d8b65b442f5f9
     Pseudo is Ultrasoft + core correction, Zval = 10.0
     Generated using 'atomic' code by A. Dal Corso  v.7.0
     Using radial grid of 1129 points,  4 beta functions with: 
                l(1) =   0
                l(2) =   0
                l(3) =   1
                l(4) =   1
     Q(r) pseudized with 0 coefficients 


     PseudoPot. # 3 for Si read from file:
     /home/tim/espresso/pseudo/Si.pbe-nl-rrkjus_psl.1.0.0.UPF
     MD5 check sum: ceeb670d53204f1f4f48a0a0dd9ca3d4
     Pseudo is Ultrasoft + core correction, Zval =  4.0
     Generated using 'atomic' code by A. Dal Corso  v.7.0
     Using radial grid of 1141 points,  4 beta functions with: 
                l(1) =   0
                l(2) =   0
                l(3) =   1
                l(4) =   1
     Q(r) pseudized with 0 coefficients 


     atomic species   valence    mass     pseudopotential
        O              6.00    15.99900     O ( 1.00)
        Mg            10.00    24.30500     Mg( 1.00)
        Si             4.00    28.08500     Si( 1.00)

      2 Sym. Ops., with inversion, found



   Cartesian axes

     site n.     atom                  positions (alat units)
         1           O   tau(   1) = (   1.2556278   0.7795510   0.1430952  )
         2           O   tau(   2) = (   1.1117127   0.6952738   0.6693196  )
         3           O   tau(   3) = (   1.4133075   0.3134320   0.3941992  )
         4           O   tau(   4) = (   0.9408310   0.2593801   0.5579163  )
         5           O   tau(   5) = (   1.0847462   0.3436572   0.0316920  )
         6           O   tau(   6) = (   0.7831513   0.7254990   0.3068123  )
         7           Mg  tau(   7) = (   0.7915657   0.3744127   0.2526324  )
         8           Mg  tau(   8) = (   1.4048931   0.6645183   0.4483791  )
         9           Si  tau(   9) = (   0.3466428   0.1639630   0.1106329  )
        10           Si  tau(  10) = (   1.8498160   0.8749680   0.5903787  )

     number of k points=   452

     Number of k-points >= 100: set verbosity='high' to print them.

     Dense  grid:   159073 G-vectors     FFT dimensions: (  90,  81,  81)

     Smooth grid:    61971 G-vectors     FFT dimensions: (  64,  60,  60)

     Estimated max dynamical RAM per process >     150.36 MB

     Estimated total dynamical RAM >       2.24 GB

     Check: negative core charge=   -0.000002

     Initial potential from superposition of free atoms

     starting charge      63.9970, renormalised to      64.0000
     Starting wfcs are   42 randomized atomic wfcs

     total cpu time spent up to now is        9.9 secs

     per-process dynamical memory:   147.6 Mb

     Self-consistent Calculation

     iteration #  1     ecut=    80.00 Ry     beta= 0.70
     Davidson diagonalization with overlap
     ethr =  1.00E-02,  avg # of iterations =  2.0

     total cpu time spent up to now is       26.3 secs

     total energy              =    -468.49965803 Ry
     estimated scf accuracy    <       2.09054292 Ry

     iteration #  2     ecut=    80.00 Ry     beta= 0.70
     Davidson diagonalization with overlap
     ethr =  3.27E-03,  avg # of iterations =  3.0

     total cpu time spent up to now is       45.6 secs

     total energy              =    -469.19716764 Ry
     estimated scf accuracy    <       1.50820063 Ry

     iteration #  3     ecut=    80.00 Ry     beta= 0.70
     Davidson diagonalization with overlap
     ethr =  2.36E-03,  avg # of iterations =  2.0

     total cpu time spent up to now is       61.8 secs

     total energy              =    -469.39880713 Ry
     estimated scf accuracy    <       0.05916161 Ry

     iteration #  4     ecut=    80.00 Ry     beta= 0.70
     Davidson diagonalization with overlap
     ethr =  9.24E-05,  avg # of iterations =  5.2

     total cpu time spent up to now is       86.3 secs

     total energy              =    -469.46010992 Ry
     estimated scf accuracy    <       0.08247712 Ry

     iteration #  5     ecut=    80.00 Ry     beta= 0.70
     Davidson diagonalization with overlap
     ethr =  9.24E-05,  avg # of iterations =  2.0

     total cpu time spent up to now is      100.8 secs

     total energy              =    -469.45056620 Ry
     estimated scf accuracy    <       0.03117235 Ry

     iteration #  6     ecut=    80.00 Ry     beta= 0.70
     Davidson diagonalization with overlap
     ethr =  4.87E-05,  avg # of iterations =  2.0

     total cpu time spent up to now is      117.5 secs

     total energy              =    -469.45545052 Ry
     estimated scf accuracy    <       0.00134073 Ry

     iteration #  7     ecut=    80.00 Ry     beta= 0.70
     Davidson diagonalization with overlap
     ethr =  2.09E-06,  avg # of iterations =  5.5

     total cpu time spent up to now is      141.7 secs

     total energy              =    -469.45659031 Ry
     estimated scf accuracy    <       0.00005662 Ry

     iteration #  8     ecut=    80.00 Ry     beta= 0.70
     Davidson diagonalization with overlap
     ethr =  8.85E-08,  avg # of iterations =  5.8

     total cpu time spent up to now is      169.1 secs

     total energy              =    -469.45612759 Ry
     estimated scf accuracy    <       0.00181422 Ry

     iteration #  9     ecut=    80.00 Ry     beta= 0.70
     Davidson diagonalization with overlap
     ethr =  8.85E-08,  avg # of iterations =  5.1

     total cpu time spent up to now is      193.8 secs

     total energy              =    -469.45632251 Ry
     estimated scf accuracy    <       0.00007143 Ry

     iteration # 10     ecut=    80.00 Ry     beta= 0.70
     Davidson diagonalization with overlap
     ethr =  8.85E-08,  avg # of iterations =  3.0

     total cpu time spent up to now is      211.2 secs

     End of self-consistent calculation

     Number of k-points >= 100: set verbosity='high' to print the bands.

     highest occupied level (ev):     6.9722

!    total energy              =    -469.45633671 Ry
     estimated scf accuracy    <       0.00000085 Ry

     The total energy is the sum of the following terms:
     one-electron contribution =    -227.77829330 Ry
     hartree contribution      =     145.22610693 Ry
     xc contribution           =     -90.91380241 Ry
     ewald contribution        =    -295.99034793 Ry

     convergence has been achieved in  10 iterations

     Forces acting on atoms (cartesian axes, Ry/au):

     atom    1 type  1   force =    -0.01688942   -0.00076236   -0.00631037
     atom    2 type  1   force =    -0.04031924   -0.00249749   -0.00129499
     atom    3 type  1   force =    -0.01926658   -0.01549552    0.00022915
     atom    4 type  1   force =     0.01688942    0.00076236    0.00631037
     atom    5 type  1   force =     0.04031924    0.00249749    0.00129499
     atom    6 type  1   force =     0.01926658    0.01549552   -0.00022915
     atom    7 type  2   force =     0.00203512   -0.00180812   -0.00361257
     atom    8 type  2   force =    -0.00203512    0.00180812    0.00361257
     atom    9 type  3   force =     0.00035276    0.01136601   -0.00192482
     atom   10 type  3   force =    -0.00035276   -0.01136601    0.00192482

     Total force =     0.073811     Total SCF correction =     0.000595


     Computing stress (Cartesian axis) and pressure

          total   stress  (Ry/bohr**3)                   (kbar)     P=      -89.22
  -0.00129607  -0.00011420   0.00000560         -190.66      -16.80        0.82
  -0.00011420  -0.00023675  -0.00009443          -16.80      -34.83      -13.89
   0.00000560  -0.00009443  -0.00028666            0.82      -13.89      -42.17


     BFGS Geometry Optimization
     Energy error            =      0.0E+00 Ry
     Gradient error          =      4.0E-02 Ry/Bohr

     number of scf cycles    =   1
     number of bfgs steps    =   0

     energy             new  =    -469.4563367072 Ry

     new trust radius        =       0.0404172701 bohr
     new conv_thr            =       0.0000010000 Ry


ATOMIC_POSITIONS (angstrom)
O             7.0706449787        4.3949238514        0.8034717280
O             6.2468122641        3.9188274998        3.7731264272
O             7.9584292479        1.7590180513        2.2227271785
O             5.3136069263        1.4628611057        3.1490283916
O             6.1374396409        1.9389574573        0.1793736924
O             4.4258226571        4.0987669058        1.7297729410
Mg            4.4641466993        2.1100873640        1.4225008541
Mg            7.9201052057        3.7476975931        2.5299992655
Si            1.9546560101        0.9304839667        0.6227607519
Si           10.4295958949        4.9273009904        3.3297393677



     Writing config-only to output data dir ./Aknew_.save/
     NEW-OLD atomic charge density approx. for the potential

     Check: negative core charge=   -0.000002

     total cpu time spent up to now is      226.1 secs

     per-process dynamical memory:   154.9 Mb

     Self-consistent Calculation

     iteration #  1     ecut=    80.00 Ry     beta= 0.70
     Davidson diagonalization with overlap
     ethr =  1.00E-06,  avg # of iterations =  6.3

     total cpu time spent up to now is      257.3 secs

     total energy              =    -469.45982670 Ry
     estimated scf accuracy    <       0.00140376 Ry

     iteration #  2     ecut=    80.00 Ry     beta= 0.70
     Davidson diagonalization with overlap
     ethr =  2.19E-06,  avg # of iterations =  2.1

     total cpu time spent up to now is      272.9 secs

     total energy              =    -469.46027043 Ry
     estimated scf accuracy    <       0.00031365 Ry

     iteration #  3     ecut=    80.00 Ry     beta= 0.70
     Davidson diagonalization with overlap
     ethr =  4.90E-07,  avg # of iterations =  2.0

     total cpu time spent up to now is      288.0 secs

     total energy              =    -469.46032866 Ry
     estimated scf accuracy    <       0.00000497 Ry

     iteration #  4     ecut=    80.00 Ry     beta= 0.70
     Davidson diagonalization with overlap
     ethr =  7.76E-09,  avg # of iterations =  6.5

     total cpu time spent up to now is      317.1 secs

     total energy              =    -469.46033436 Ry
     estimated scf accuracy    <       0.00000122 Ry

     iteration #  5     ecut=    80.00 Ry     beta= 0.70
     Davidson diagonalization with overlap
     ethr =  1.91E-09,  avg # of iterations =  2.0

     total cpu time spent up to now is      332.9 secs

     End of self-consistent calculation

     Number of k-points >= 100: set verbosity='high' to print the bands.

     highest occupied level (ev):     6.9675

!    total energy              =    -469.46033452 Ry
     estimated scf accuracy    <       0.00000013 Ry

     The total energy is the sum of the following terms:
     one-electron contribution =    -227.48545613 Ry
     hartree contribution      =     145.05619007 Ry
     xc contribution           =     -90.95351991 Ry
     ewald contribution        =    -296.07754855 Ry

     convergence has been achieved in   5 iterations

     Forces acting on atoms (cartesian axes, Ry/au):

     atom    1 type  1   force =    -0.00904666    0.00282889   -0.00063788
     atom    2 type  1   force =    -0.02024169   -0.00107521   -0.00138750
     atom    3 type  1   force =    -0.00978379   -0.00309059    0.00280731
     atom    4 type  1   force =     0.00904666   -0.00282889    0.00063788
     atom    5 type  1   force =     0.02024169    0.00107521    0.00138750
     atom    6 type  1   force =     0.00978379    0.00309059   -0.00280731
     atom    7 type  2   force =     0.00409118   -0.00062128   -0.00189079
     atom    8 type  2   force =    -0.00409118    0.00062128    0.00189079
     atom    9 type  3   force =     0.00291989    0.00509805    0.00042243
     atom   10 type  3   force =    -0.00291989   -0.00509805   -0.00042243

     Total force =     0.036650     Total SCF correction =     0.001387


     Computing stress (Cartesian axis) and pressure

          total   stress  (Ry/bohr**3)                   (kbar)     P=      -77.09
  -0.00113782  -0.00007076   0.00002736         -167.38      -10.41        4.03
  -0.00007076  -0.00019145  -0.00009363          -10.41      -28.16      -13.77
   0.00002736  -0.00009363  -0.00024296            4.03      -13.77      -35.74

     Energy error            =      4.0E-03 Ry
     Gradient error          =      2.0E-02 Ry/Bohr

     number of scf cycles    =   2
     number of bfgs steps    =   1

     energy             old  =    -469.4563367072 Ry
     energy             new  =    -469.4603345217 Ry

     CASE: energy            _new < energy            _old

     new trust radius        =       0.0419046626 bohr
     new conv_thr            =       0.0000002024 Ry


ATOMIC_POSITIONS (angstrom)
O             7.0608200784        4.3977270754        0.8025510910
O             6.2247166731        3.9176379797        3.7716772227
O             7.9477592433        1.7552286742        2.2255528969
O             5.3234318266        1.4600578817        3.1499490286
O             6.1595352319        1.9401469774        0.1808228969
O             4.4364926617        4.1025562829        1.7269472226
Mg            4.4683404325        2.1093837881        1.4204437348
Mg            7.9159114725        3.7484011690        2.5320563848
Si            1.9576001428        0.9361028526        0.6230987373
Si           10.4266517622        4.9216821045        3.3294013823



     Writing config-only to output data dir ./Aknew_.save/
     NEW-OLD atomic charge density approx. for the potential

     Check: negative core charge=   -0.000002

     total cpu time spent up to now is      346.4 secs

     per-process dynamical memory:   154.9 Mb

     Self-consistent Calculation

     iteration #  1     ecut=    80.00 Ry     beta= 0.70
     Davidson diagonalization with overlap
     ethr =  1.00E-06,  avg # of iterations =  7.2

     total cpu time spent up to now is      380.0 secs

     total energy              =    -469.46139225 Ry
     estimated scf accuracy    <       0.00129432 Ry

     iteration #  2     ecut=    80.00 Ry     beta= 0.70
     Davidson diagonalization with overlap
     ethr =  2.02E-06,  avg # of iterations =  2.1

     total cpu time spent up to now is      396.1 secs

     total energy              =    -469.46177446 Ry
     estimated scf accuracy    <       0.00028213 Ry

     iteration #  3     ecut=    80.00 Ry     beta= 0.70
     Davidson diagonalization with overlap
     ethr =  4.41E-07,  avg # of iterations =  2.0

     total cpu time spent up to now is      411.5 secs

     total energy              =    -469.46182959 Ry
     estimated scf accuracy    <       0.00000525 Ry

     iteration #  4     ecut=    80.00 Ry     beta= 0.70
     Davidson diagonalization with overlap
     ethr =  8.21E-09,  avg # of iterations =  5.6

     total cpu time spent up to now is      434.8 secs

     total energy              =    -469.46183300 Ry
     estimated scf accuracy    <       0.00000134 Ry

     iteration #  5     ecut=    80.00 Ry     beta= 0.70
     Davidson diagonalization with overlap
     ethr =  2.09E-09,  avg # of iterations =  2.8

     total cpu time spent up to now is      452.7 secs

     End of self-consistent calculation

     Number of k-points >= 100: set verbosity='high' to print the bands.

     highest occupied level (ev):     6.9678

!    total energy              =    -469.46183330 Ry
     estimated scf accuracy    <       0.00000013 Ry

     The total energy is the sum of the following terms:
     one-electron contribution =    -227.32203645 Ry
     hartree contribution      =     144.95002960 Ry
     xc contribution           =     -90.98756658 Ry
     ewald contribution        =    -296.10225987 Ry

     convergence has been achieved in   5 iterations

     Forces acting on atoms (cartesian axes, Ry/au):

     atom    1 type  1   force =    -0.00215252    0.00503105    0.00292706
     atom    2 type  1   force =     0.00063715    0.00057823   -0.00139283
     atom    3 type  1   force =    -0.00181437    0.00532401    0.00421376
     atom    4 type  1   force =     0.00215252   -0.00503105   -0.00292706
     atom    5 type  1   force =    -0.00063715   -0.00057823    0.00139283
     atom    6 type  1   force =     0.00181437   -0.00532401   -0.00421376
     atom    7 type  2   force =     0.00554414    0.00016880    0.00024913
     atom    8 type  2   force =    -0.00554414   -0.00016880   -0.00024913
     atom    9 type  3   force =     0.00477928   -0.00157482    0.00212115
     atom   10 type  3   force =    -0.00477928    0.00157482   -0.00212115

     Total force =     0.017392     Total SCF correction =     0.000806


     Computing stress (Cartesian axis) and pressure

          total   stress  (Ry/bohr**3)                   (kbar)     P=      -67.59
  -0.00098815  -0.00003497   0.00004354         -145.36       -5.14        6.40
  -0.00003497  -0.00017278  -0.00010132           -5.14      -25.42      -14.90
   0.00004354  -0.00010132  -0.00021740            6.40      -14.90      -31.98

     Energy error            =      1.5E-03 Ry
     Gradient error          =      5.5E-03 Ry/Bohr

     number of scf cycles    =   3
     number of bfgs steps    =   2

     energy             old  =    -469.4603345217 Ry
     energy             new  =    -469.4618333011 Ry

     CASE: energy            _new < energy            _old

     new trust radius        =       0.0082815101 bohr
     new conv_thr            =       0.0000000554 Ry


ATOMIC_POSITIONS (angstrom)
O             7.0580715871        4.4008442853        0.8039168537
O             6.2216026218        3.9177712814        3.7706976669
O             7.9450407843        1.7573736653        2.2282388427
O             5.3261803179        1.4569406718        3.1485832659
O             6.1626492832        1.9400136757        0.1818024527
O             4.4392111207        4.1004112918        1.7242612768
Mg            4.4719821223        2.1093503282        1.4202684954
Mg            7.9122697827        3.7484346289        2.5322316242
Si            1.9606270103        0.9361230591        0.6242776345
Si           10.4236248947        4.9216618980        3.3282224851



     Writing config-only to output data dir ./Aknew_.save/
     NEW-OLD atomic charge density approx. for the potential

     Check: negative core charge=   -0.000002

     total cpu time spent up to now is      466.6 secs

     per-process dynamical memory:   154.9 Mb

     Self-consistent Calculation

     iteration #  1     ecut=    80.00 Ry     beta= 0.70
     Davidson diagonalization with overlap
     ethr =  1.00E-06,  avg # of iterations =  7.0

     Threshold (ethr) on eigenvalues was too large:
     Diagonalizing with lowered threshold

     Davidson diagonalization with overlap
     ethr =  6.94E-08,  avg # of iterations =  3.8

     total cpu time spent up to now is      510.5 secs

     total energy              =    -469.46212080 Ry
     estimated scf accuracy    <       0.00005079 Ry

     iteration #  2     ecut=    80.00 Ry     beta= 0.70
     Davidson diagonalization with overlap
     ethr =  7.94E-08,  avg # of iterations =  2.0

     total cpu time spent up to now is      527.5 secs

     total energy              =    -469.46212878 Ry
     estimated scf accuracy    <       0.00000424 Ry

     iteration #  3     ecut=    80.00 Ry     beta= 0.70
     Davidson diagonalization with overlap
     ethr =  6.63E-09,  avg # of iterations =  3.2

     total cpu time spent up to now is      545.1 secs

     total energy              =    -469.46212982 Ry
     estimated scf accuracy    <       0.00000109 Ry

     iteration #  4     ecut=    80.00 Ry     beta= 0.70
     Davidson diagonalization with overlap
     ethr =  1.70E-09,  avg # of iterations =  3.6

     total cpu time spent up to now is      562.4 secs

     total energy              =    -469.46213009 Ry
     estimated scf accuracy    <       0.00000009 Ry

     iteration #  5     ecut=    80.00 Ry     beta= 0.70
     Davidson diagonalization with overlap
     ethr =  1.41E-10,  avg # of iterations =  4.5

     total cpu time spent up to now is      582.2 secs

     End of self-consistent calculation

     Number of k-points >= 100: set verbosity='high' to print the bands.

     highest occupied level (ev):     6.9733

!    total energy              =    -469.46213011 Ry
     estimated scf accuracy    <          7.5E-09 Ry

     The total energy is the sum of the following terms:
     one-electron contribution =    -227.31629090 Ry
     hartree contribution      =     144.94638535 Ry
     xc contribution           =     -90.98993325 Ry
     ewald contribution        =    -296.10229132 Ry

     convergence has been achieved in   5 iterations

     Forces acting on atoms (cartesian axes, Ry/au):

     atom    1 type  1   force =    -0.00132833    0.00426323    0.00245023
     atom    2 type  1   force =     0.00257456    0.00097700   -0.00098212
     atom    3 type  1   force =    -0.00118478    0.00445918    0.00328765
     atom    4 type  1   force =     0.00132833   -0.00426323   -0.00245023
     atom    5 type  1   force =    -0.00257456   -0.00097700    0.00098212
     atom    6 type  1   force =     0.00118478   -0.00445918   -0.00328765
     atom    7 type  2   force =     0.00529550    0.00020941    0.00044179
     atom    8 type  2   force =    -0.00529550   -0.00020941   -0.00044179
     atom    9 type  3   force =     0.00390812   -0.00142462    0.00164023
     atom   10 type  3   force =    -0.00390812    0.00142462   -0.00164023

     Total force =     0.015157     Total SCF correction =     0.000357


     Computing stress (Cartesian axis) and pressure

          total   stress  (Ry/bohr**3)                   (kbar)     P=      -67.12
  -0.00096976  -0.00003182   0.00004297         -142.66       -4.68        6.32
  -0.00003182  -0.00018107  -0.00010635           -4.68      -26.64      -15.64
   0.00004297  -0.00010635  -0.00021804            6.32      -15.64      -32.07

     Energy error            =      3.0E-04 Ry
     Gradient error          =      5.3E-03 Ry/Bohr

     number of scf cycles    =   4
     number of bfgs steps    =   3

     energy             old  =    -469.4618333011 Ry
     energy             new  =    -469.4621301147 Ry

     CASE: energy            _new < energy            _old

     new trust radius        =       0.0091096611 bohr
     new conv_thr            =       0.0000000297 Ry


ATOMIC_POSITIONS (angstrom)
O             7.0554696061        4.4045253016        0.8056040642
O             6.2200889666        3.9183041273        3.7696958545
O             7.9424185514        1.7601216286        2.2312071786
O             5.3287822989        1.4532596555        3.1468960554
O             6.1641629384        1.9394808298        0.1828042651
O             4.4418333536        4.0976633285        1.7212929409
Mg            4.4766338883        2.1093838314        1.4202939556
Mg            7.9076180167        3.7484011257        2.5322061640
Si            1.9640978728        0.9358481804        0.6255976960
Si           10.4201540322        4.9219367767        3.3269024236



     Writing config-only to output data dir ./Aknew_.save/
     NEW-OLD atomic charge density approx. for the potential

     Check: negative core charge=   -0.000002

     total cpu time spent up to now is      596.9 secs

     per-process dynamical memory:   154.9 Mb

     Self-consistent Calculation

     iteration #  1     ecut=    80.00 Ry     beta= 0.70
     Davidson diagonalization with overlap
     ethr =  1.00E-06,  avg # of iterations =  7.0

     Threshold (ethr) on eigenvalues was too large:
     Diagonalizing with lowered threshold

     Davidson diagonalization with overlap
     ethr =  7.25E-08,  avg # of iterations =  2.0

     total cpu time spent up to now is      638.7 secs

     total energy              =    -469.46240355 Ry
     estimated scf accuracy    <       0.00005177 Ry

     iteration #  2     ecut=    80.00 Ry     beta= 0.70
     Davidson diagonalization with overlap
     ethr =  8.09E-08,  avg # of iterations =  2.0

     total cpu time spent up to now is      655.0 secs

     total energy              =    -469.46241102 Ry
     estimated scf accuracy    <       0.00000352 Ry

     iteration #  3     ecut=    80.00 Ry     beta= 0.70
     Davidson diagonalization with overlap
     ethr =  5.51E-09,  avg # of iterations =  3.7

     total cpu time spent up to now is      673.8 secs

     total energy              =    -469.46241175 Ry
     estimated scf accuracy    <       0.00000169 Ry

     iteration #  4     ecut=    80.00 Ry     beta= 0.70
     Davidson diagonalization with overlap
     ethr =  2.64E-09,  avg # of iterations =  3.2

     total cpu time spent up to now is      693.1 secs

     total energy              =    -469.46241218 Ry
     estimated scf accuracy    <       0.00000011 Ry

     iteration #  5     ecut=    80.00 Ry     beta= 0.70
     Davidson diagonalization with overlap
     ethr =  1.71E-10,  avg # of iterations =  4.2

     total cpu time spent up to now is      711.3 secs

     End of self-consistent calculation

     Number of k-points >= 100: set verbosity='high' to print the bands.

     highest occupied level (ev):     6.9789

!    total energy              =    -469.46241221 Ry
     estimated scf accuracy    <          7.1E-09 Ry

     The total energy is the sum of the following terms:
     one-electron contribution =    -227.31825873 Ry
     hartree contribution      =     144.94924859 Ry
     xc contribution           =     -90.99030650 Ry
     ewald contribution        =    -296.10309557 Ry

     convergence has been achieved in   5 iterations

     Forces acting on atoms (cartesian axes, Ry/au):

     atom    1 type  1   force =    -0.00080924    0.00303079    0.00156920
     atom    2 type  1   force =     0.00264065    0.00117751   -0.00040354
     atom    3 type  1   force =    -0.00102697    0.00291859    0.00204748
     atom    4 type  1   force =     0.00080924   -0.00303079   -0.00156920
     atom    5 type  1   force =    -0.00264065   -0.00117751    0.00040354
     atom    6 type  1   force =     0.00102697   -0.00291859   -0.00204748
     atom    7 type  2   force =     0.00475922    0.00013561    0.00039592
     atom    8 type  2   force =    -0.00475922   -0.00013561   -0.00039592
     atom    9 type  3   force =     0.00265671   -0.00077751    0.00107770
     atom   10 type  3   force =    -0.00265671    0.00077751   -0.00107770

     Total force =     0.011510     Total SCF correction =     0.000219


     Computing stress (Cartesian axis) and pressure

          total   stress  (Ry/bohr**3)                   (kbar)     P=      -67.13
  -0.00095894  -0.00003108   0.00004144         -141.06       -4.57        6.10
  -0.00003108  -0.00019091  -0.00011168           -4.57      -28.08      -16.43
   0.00004144  -0.00011168  -0.00021921            6.10      -16.43      -32.25

     Energy error            =      2.8E-04 Ry
     Gradient error          =      4.8E-03 Ry/Bohr

     number of scf cycles    =   5
     number of bfgs steps    =   4

     energy             old  =    -469.4621301147 Ry
     energy             new  =    -469.4624122083 Ry

     CASE: energy            _new < energy            _old

     new trust radius        =       0.0136644917 bohr
     new conv_thr            =       0.0000000282 Ry


ATOMIC_POSITIONS (angstrom)
O             7.0521033508        4.4095223623        0.8077492403
O             6.2188626621        3.9194753321        3.7686133836
O             7.9387327699        1.7636643122        2.2349707281
O             5.3321485542        1.4482625948        3.1447508793
O             6.1653892429        1.9383096250        0.1838867360
O             4.4455191351        4.0941206449        1.7175293914
Mg            4.4838638104        2.1094185646        1.4204100504
Mg            7.9003880946        3.7483663925        2.5320900692
Si            1.9686986805        0.9356583246        0.6273204907
Si           10.4155532245        4.9221266325        3.3251796289



     Writing config-only to output data dir ./Aknew_.save/
     NEW-OLD atomic charge density approx. for the potential

     Check: negative core charge=   -0.000002

     total cpu time spent up to now is      725.3 secs

     per-process dynamical memory:   154.9 Mb

     Self-consistent Calculation

     iteration #  1     ecut=    80.00 Ry     beta= 0.70
     Davidson diagonalization with overlap
     ethr =  1.00E-06,  avg # of iterations =  7.0

     total cpu time spent up to now is      754.4 secs

     total energy              =    -469.46265452 Ry
     estimated scf accuracy    <       0.00008411 Ry

     iteration #  2     ecut=    80.00 Ry     beta= 0.70
     Davidson diagonalization with overlap
     ethr =  1.31E-07,  avg # of iterations =  2.1

     total cpu time spent up to now is      769.8 secs

     total energy              =    -469.46266936 Ry
     estimated scf accuracy    <       0.00000649 Ry

     iteration #  3     ecut=    80.00 Ry     beta= 0.70
     Davidson diagonalization with overlap
     ethr =  1.01E-08,  avg # of iterations =  3.4

     total cpu time spent up to now is      789.5 secs

     total energy              =    -469.46267101 Ry
     estimated scf accuracy    <       0.00000298 Ry

     iteration #  4     ecut=    80.00 Ry     beta= 0.70
     Davidson diagonalization with overlap
     ethr =  4.66E-09,  avg # of iterations =  3.5

     total cpu time spent up to now is      808.6 secs

     total energy              =    -469.46267178 Ry
     estimated scf accuracy    <       0.00000017 Ry

     iteration #  5     ecut=    80.00 Ry     beta= 0.70
     Davidson diagonalization with overlap
     ethr =  2.68E-10,  avg # of iterations =  4.4

     total cpu time spent up to now is      827.5 secs

     End of self-consistent calculation

     Number of k-points >= 100: set verbosity='high' to print the bands.

     highest occupied level (ev):     6.9860

!    total energy              =    -469.46267183 Ry
     estimated scf accuracy    <          7.6E-09 Ry

     The total energy is the sum of the following terms:
     one-electron contribution =    -227.32258187 Ry
     hartree contribution      =     144.95507400 Ry
     xc contribution           =     -90.99071955 Ry
     ewald contribution        =    -296.10444441 Ry

     convergence has been achieved in   5 iterations

     Forces acting on atoms (cartesian axes, Ry/au):

     atom    1 type  1   force =    -0.00009095    0.00126211    0.00038633
     atom    2 type  1   force =     0.00189815    0.00124055    0.00040112
     atom    3 type  1   force =    -0.00082492    0.00101810    0.00044216
     atom    4 type  1   force =     0.00009095   -0.00126211   -0.00038633
     atom    5 type  1   force =    -0.00189815   -0.00124055   -0.00040112
     atom    6 type  1   force =     0.00082492   -0.00101810   -0.00044216
     atom    7 type  2   force =     0.00381174    0.00010791    0.00034253
     atom    8 type  2   force =    -0.00381174   -0.00010791   -0.00034253
     atom    9 type  3   force =     0.00092504    0.00006647    0.00048970
     atom   10 type  3   force =    -0.00092504   -0.00006647   -0.00048970

     Total force =     0.007032     Total SCF correction =     0.000177


     Computing stress (Cartesian axis) and pressure

          total   stress  (Ry/bohr**3)                   (kbar)     P=      -67.04
  -0.00094506  -0.00003109   0.00003944         -139.02       -4.57        5.80
  -0.00003109  -0.00020299  -0.00011930           -4.57      -29.86      -17.55
   0.00003944  -0.00011930  -0.00021907            5.80      -17.55      -32.23

     Energy error            =      2.6E-04 Ry
     Gradient error          =      3.8E-03 Ry/Bohr

     number of scf cycles    =   6
     number of bfgs steps    =   5

     energy             old  =    -469.4624122083 Ry
     energy             new  =    -469.4626718263 Ry

     CASE: energy            _new < energy            _old

     new trust radius        =       0.0185587205 bohr
     new conv_thr            =       0.0000000260 Ry


ATOMIC_POSITIONS (angstrom)
O             7.0485789176        4.4150184132        0.8098239722
O             6.2180398761        3.9214903625        3.7679987157
O             7.9341894976        1.7673465749        2.2387156166
O             5.3356729874        1.4427665439        3.1426761474
O             6.1662120289        1.9362945946        0.1845014039
O             4.4500624074        4.0904383822        1.7137845029
Mg            4.4936800902        2.1095058699        1.4206966910
Mg            7.8905718148        3.7482790872        2.5318034286
Si            1.9735863736        0.9358869032        0.6292811084
Si           10.4106655314        4.9218980539        3.3232190112



     Writing config-only to output data dir ./Aknew_.save/
     NEW-OLD atomic charge density approx. for the potential

     Check: negative core charge=   -0.000002

     total cpu time spent up to now is      842.5 secs

     per-process dynamical memory:   154.9 Mb

     Self-consistent Calculation

     iteration #  1     ecut=    80.00 Ry     beta= 0.70
     Davidson diagonalization with overlap
     ethr =  1.00E-06,  avg # of iterations =  7.7

     total cpu time spent up to now is      873.2 secs

     total energy              =    -469.46278016 Ry
     estimated scf accuracy    <       0.00009954 Ry

     iteration #  2     ecut=    80.00 Ry     beta= 0.70
     Davidson diagonalization with overlap
     ethr =  1.56E-07,  avg # of iterations =  2.0

     total cpu time spent up to now is      888.6 secs

     total energy              =    -469.46279756 Ry
     estimated scf accuracy    <       0.00000735 Ry

     iteration #  3     ecut=    80.00 Ry     beta= 0.70
     Davidson diagonalization with overlap
     ethr =  1.15E-08,  avg # of iterations =  3.4

     total cpu time spent up to now is      907.5 secs

     total energy              =    -469.46279950 Ry
     estimated scf accuracy    <       0.00000325 Ry

     iteration #  4     ecut=    80.00 Ry     beta= 0.70
     Davidson diagonalization with overlap
     ethr =  5.08E-09,  avg # of iterations =  3.6

     total cpu time spent up to now is      926.1 secs

     total energy              =    -469.46280036 Ry
     estimated scf accuracy    <       0.00000020 Ry

     iteration #  5     ecut=    80.00 Ry     beta= 0.70
     Davidson diagonalization with overlap
     ethr =  3.13E-10,  avg # of iterations =  4.7

     total cpu time spent up to now is      946.3 secs

     End of self-consistent calculation

     Number of k-points >= 100: set verbosity='high' to print the bands.

     highest occupied level (ev):     6.9930

!    total energy              =    -469.46280043 Ry
     estimated scf accuracy    <          9.0E-09 Ry

     The total energy is the sum of the following terms:
     one-electron contribution =    -227.32454924 Ry
     hartree contribution      =     144.96122830 Ry
     xc contribution           =     -90.99186578 Ry
     ewald contribution        =    -296.10761371 Ry

     convergence has been achieved in   5 iterations

     Forces acting on atoms (cartesian axes, Ry/au):

     atom    1 type  1   force =     0.00073651   -0.00067689   -0.00083835
     atom    2 type  1   force =     0.00054209    0.00100858    0.00120748
     atom    3 type  1   force =    -0.00050874   -0.00076983   -0.00114265
     atom    4 type  1   force =    -0.00073651    0.00067689    0.00083835
     atom    5 type  1   force =    -0.00054209   -0.00100858   -0.00120748
     atom    6 type  1   force =     0.00050874    0.00076983    0.00114265
     atom    7 type  2   force =     0.00241413    0.00017219    0.00026397
     atom    8 type  2   force =    -0.00241413   -0.00017219   -0.00026397
     atom    9 type  3   force =    -0.00085987    0.00075107   -0.00003945
     atom   10 type  3   force =     0.00085987   -0.00075107    0.00003945

     Total force =     0.005265     Total SCF correction =     0.000264


     Computing stress (Cartesian axis) and pressure

          total   stress  (Ry/bohr**3)                   (kbar)     P=      -66.59
  -0.00092728  -0.00003169   0.00003718         -136.41       -4.66        5.47
  -0.00003169  -0.00021509  -0.00012895           -4.66      -31.64      -18.97
   0.00003718  -0.00012895  -0.00021562            5.47      -18.97      -31.72

     Energy error            =      1.3E-04 Ry
     Gradient error          =      2.4E-03 Ry/Bohr

     number of scf cycles    =   7
     number of bfgs steps    =   6

     energy             old  =    -469.4626718263 Ry
     energy             new  =    -469.4628004275 Ry

     CASE: energy            _new < energy            _old

     new trust radius        =       0.0059647542 bohr
     new conv_thr            =       0.0000000129 Ry


ATOMIC_POSITIONS (angstrom)
O             7.0483477359        4.4156899518        0.8097800114
O             6.2181614058        3.9223957455        3.7685418422
O             7.9330904981        1.7676941406        2.2388204489
O             5.3359041691        1.4420950053        3.1427201082
O             6.1660904992        1.9353892116        0.1839582774
O             4.4511614069        4.0900908165        1.7136796706
Mg            4.4968277486        2.1096275457        1.4208976339
Mg            7.8874241564        3.7481574114        2.5316024857
Si            1.9740520290        0.9363003419        0.6296581826
Si           10.4101998760        4.9214846152        3.3228419370



     Writing config-only to output data dir ./Aknew_.save/
     NEW-OLD atomic charge density approx. for the potential

     Check: negative core charge=   -0.000002

     total cpu time spent up to now is      959.8 secs

     per-process dynamical memory:   154.9 Mb

     Self-consistent Calculation

     iteration #  1     ecut=    80.00 Ry     beta= 0.70
     Davidson diagonalization with overlap
     ethr =  1.00E-06,  avg # of iterations =  5.7

     Threshold (ethr) on eigenvalues was too large:
     Diagonalizing with lowered threshold

     Davidson diagonalization with overlap
     ethr =  3.17E-09,  avg # of iterations =  4.0

     total cpu time spent up to now is     1003.9 secs

     total energy              =    -469.46282759 Ry
     estimated scf accuracy    <       0.00000297 Ry

     iteration #  2     ecut=    80.00 Ry     beta= 0.70
     Davidson diagonalization with overlap
     ethr =  4.64E-09,  avg # of iterations =  2.0

     total cpu time spent up to now is     1020.0 secs

     total energy              =    -469.46282809 Ry
     estimated scf accuracy    <       0.00000036 Ry

     iteration #  3     ecut=    80.00 Ry     beta= 0.70
     Davidson diagonalization with overlap
     ethr =  5.60E-10,  avg # of iterations =  3.8

     total cpu time spent up to now is     1038.2 secs

     total energy              =    -469.46282819 Ry
     estimated scf accuracy    <       0.00000010 Ry

     iteration #  4     ecut=    80.00 Ry     beta= 0.70
     Davidson diagonalization with overlap
     ethr =  1.51E-10,  avg # of iterations =  3.6

     total cpu time spent up to now is     1056.7 secs

     End of self-consistent calculation

     Number of k-points >= 100: set verbosity='high' to print the bands.

     highest occupied level (ev):     6.9930

!    total energy              =    -469.46282821 Ry
     estimated scf accuracy    <          6.5E-09 Ry

     The total energy is the sum of the following terms:
     one-electron contribution =    -227.31026051 Ry
     hartree contribution      =     144.95613256 Ry
     xc contribution           =     -90.99276226 Ry
     ewald contribution        =    -296.11593800 Ry

     convergence has been achieved in   4 iterations

     Forces acting on atoms (cartesian axes, Ry/au):

     atom    1 type  1   force =     0.00072000   -0.00083971   -0.00095702
     atom    2 type  1   force =     0.00014887    0.00074624    0.00117974
     atom    3 type  1   force =    -0.00036560   -0.00074551   -0.00116442
     atom    4 type  1   force =    -0.00072000    0.00083971    0.00095702
     atom    5 type  1   force =    -0.00014887   -0.00074624   -0.00117974
     atom    6 type  1   force =     0.00036560    0.00074551    0.00116442
     atom    7 type  2   force =     0.00178393    0.00027422    0.00021067
     atom    8 type  2   force =    -0.00178393   -0.00027422   -0.00021067
     atom    9 type  3   force =    -0.00082339    0.00052595   -0.00011905
     atom   10 type  3   force =     0.00082339   -0.00052595    0.00011905

     Total force =     0.004566     Total SCF correction =     0.000099


     Computing stress (Cartesian axis) and pressure

          total   stress  (Ry/bohr**3)                   (kbar)     P=      -66.15
  -0.00092245  -0.00003131   0.00003675         -135.70       -4.61        5.41
  -0.00003131  -0.00021528  -0.00013165           -4.61      -31.67      -19.37
   0.00003675  -0.00013165  -0.00021122            5.41      -19.37      -31.07

     Energy error            =      2.8E-05 Ry
     Gradient error          =      1.8E-03 Ry/Bohr

     number of scf cycles    =   8
     number of bfgs steps    =   7

     energy             old  =    -469.4628004275 Ry
     energy             new  =    -469.4628282124 Ry

     CASE: energy            _new < energy            _old

     new trust radius        =       0.0065612296 bohr
     new conv_thr            =       0.0000000100 Ry


ATOMIC_POSITIONS (angstrom)
O             7.0486305359        4.4157480018        0.8092153467
O             6.2184118672        3.9235044377        3.7696490795
O             7.9320963674        1.7676629912        2.2382616925
O             5.3356213691        1.4420369553        3.1432847729
O             6.1658400378        1.9342805194        0.1828510401
O             4.4521555376        4.0901219659        1.7142384270
Mg            4.5002757709        2.1099164062        1.4211854798
Mg            7.8839761341        3.7478685509        2.5313146398
Si            1.9739947717        0.9368214496        0.6299054903
Si           10.4102571333        4.9209635075        3.3225946293



     Writing config-only to output data dir ./Aknew_.save/
     NEW-OLD atomic charge density approx. for the potential

     Check: negative core charge=   -0.000002

     total cpu time spent up to now is     1070.8 secs

     per-process dynamical memory:   154.9 Mb

     Self-consistent Calculation

     iteration #  1     ecut=    80.00 Ry     beta= 0.70
     Davidson diagonalization with overlap
     ethr =  1.00E-06,  avg # of iterations =  5.7

     Threshold (ethr) on eigenvalues was too large:
     Diagonalizing with lowered threshold

     Davidson diagonalization with overlap
     ethr =  4.31E-09,  avg # of iterations =  3.3

     total cpu time spent up to now is     1112.3 secs

     total energy              =    -469.46285974 Ry
     estimated scf accuracy    <       0.00000379 Ry

     iteration #  2     ecut=    80.00 Ry     beta= 0.70
     Davidson diagonalization with overlap
     ethr =  5.92E-09,  avg # of iterations =  2.0

     total cpu time spent up to now is     1128.3 secs

     total energy              =    -469.46286039 Ry
     estimated scf accuracy    <       0.00000037 Ry

     iteration #  3     ecut=    80.00 Ry     beta= 0.70
     Davidson diagonalization with overlap
     ethr =  5.71E-10,  avg # of iterations =  4.0

     total cpu time spent up to now is     1147.6 secs

     total energy              =    -469.46286049 Ry
     estimated scf accuracy    <       0.00000011 Ry

     iteration #  4     ecut=    80.00 Ry     beta= 0.70
     Davidson diagonalization with overlap
     ethr =  1.72E-10,  avg # of iterations =  3.6

     total cpu time spent up to now is     1166.3 secs

     End of self-consistent calculation

     Number of k-points >= 100: set verbosity='high' to print the bands.

     highest occupied level (ev):     6.9923

!    total energy              =    -469.46286052 Ry
     estimated scf accuracy    <          9.6E-09 Ry

     The total energy is the sum of the following terms:
     one-electron contribution =    -227.28336848 Ry
     hartree contribution      =     144.94441067 Ry
     xc contribution           =     -90.99384635 Ry
     ewald contribution        =    -296.13005635 Ry

     convergence has been achieved in   4 iterations

     Forces acting on atoms (cartesian axes, Ry/au):

     atom    1 type  1   force =     0.00054189   -0.00072037   -0.00084100
     atom    2 type  1   force =    -0.00010477    0.00036792    0.00089616
     atom    3 type  1   force =    -0.00020309   -0.00050166   -0.00087920
     atom    4 type  1   force =    -0.00054189    0.00072037    0.00084100
     atom    5 type  1   force =     0.00010477   -0.00036792   -0.00089616
     atom    6 type  1   force =     0.00020309    0.00050166    0.00087920
     atom    7 type  2   force =     0.00110188    0.00035881    0.00012498
     atom    8 type  2   force =    -0.00110188   -0.00035881   -0.00012498
     atom    9 type  3   force =    -0.00048899    0.00015704   -0.00014421
     atom   10 type  3   force =     0.00048899   -0.00015704    0.00014421

     Total force =     0.003218     Total SCF correction =     0.000123


     Computing stress (Cartesian axis) and pressure

          total   stress  (Ry/bohr**3)                   (kbar)     P=      -65.74
  -0.00091944  -0.00003043   0.00003645         -135.25       -4.48        5.36
  -0.00003043  -0.00021512  -0.00013381           -4.48      -31.65      -19.68
   0.00003645  -0.00013381  -0.00020611            5.36      -19.68      -30.32

     Energy error            =      3.2E-05 Ry
     Gradient error          =      1.1E-03 Ry/Bohr

     number of scf cycles    =   9
     number of bfgs steps    =   8

     energy             old  =    -469.4628282124 Ry
     energy             new  =    -469.4628605174 Ry

     CASE: energy            _new < energy            _old

     new trust radius        =       0.0098418444 bohr
     new conv_thr            =       0.0000000100 Ry


ATOMIC_POSITIONS (angstrom)
O             7.0495012558        4.4152274838        0.8078308476
O             6.2187688068        3.9251257228        3.7717560413
O             7.9308040868        1.7673291311        2.2368687806
O             5.3347506492        1.4425574733        3.1446692720
O             6.1654830982        1.9326592343        0.1807440783
O             4.4534478182        4.0904558260        1.7156313389
Mg            4.5054132440        2.1106330378        1.4216512095
Mg            7.8788386610        3.7471519193        2.5308489101
Si            1.9735923876        0.9374523434        0.6300986365
Si           10.4106595174        4.9203326137        3.3224014831



     Writing config-only to output data dir ./Aknew_.save/
     NEW-OLD atomic charge density approx. for the potential

     Check: negative core charge=   -0.000002

     total cpu time spent up to now is     1180.6 secs

     per-process dynamical memory:   154.9 Mb

     Self-consistent Calculation

     iteration #  1     ecut=    80.00 Ry     beta= 0.70
     Davidson diagonalization with overlap
     ethr =  1.00E-06,  avg # of iterations =  7.0

     Threshold (ethr) on eigenvalues was too large:
     Diagonalizing with lowered threshold

     Davidson diagonalization with overlap
     ethr =  1.74E-08,  avg # of iterations =  2.9

     total cpu time spent up to now is     1223.9 secs

     total energy              =    -469.46288390 Ry
     estimated scf accuracy    <       0.00001302 Ry

     iteration #  2     ecut=    80.00 Ry     beta= 0.70
     Davidson diagonalization with overlap
     ethr =  2.03E-08,  avg # of iterations =  2.0

     total cpu time spent up to now is     1240.4 secs

     total energy              =    -469.46288620 Ry
     estimated scf accuracy    <       0.00000096 Ry

     iteration #  3     ecut=    80.00 Ry     beta= 0.70
     Davidson diagonalization with overlap
     ethr =  1.50E-09,  avg # of iterations =  4.0

     total cpu time spent up to now is     1260.0 secs

     total energy              =    -469.46288647 Ry
     estimated scf accuracy    <       0.00000022 Ry

     iteration #  4     ecut=    80.00 Ry     beta= 0.70
     Davidson diagonalization with overlap
     ethr =  3.47E-10,  avg # of iterations =  3.8

     total cpu time spent up to now is     1278.0 secs

     total energy              =    -469.46288653 Ry
     estimated scf accuracy    <       0.00000003 Ry

     iteration #  5     ecut=    80.00 Ry     beta= 0.70
     Davidson diagonalization with overlap
     ethr =  4.01E-11,  avg # of iterations =  3.6

     total cpu time spent up to now is     1296.5 secs

     End of self-consistent calculation

     Number of k-points >= 100: set verbosity='high' to print the bands.

     highest occupied level (ev):     6.9913

!    total energy              =    -469.46288653 Ry
     estimated scf accuracy    <          2.9E-09 Ry

     The total energy is the sum of the following terms:
     one-electron contribution =    -227.23465864 Ry
     hartree contribution      =     144.92253176 Ry
     xc contribution           =     -90.99587766 Ry
     ewald contribution        =    -296.15488200 Ry

     convergence has been achieved in   5 iterations

     Forces acting on atoms (cartesian axes, Ry/au):

     atom    1 type  1   force =     0.00016401   -0.00022384   -0.00031429
     atom    2 type  1   force =    -0.00025785   -0.00019183    0.00020591
     atom    3 type  1   force =     0.00003144   -0.00005074   -0.00017306
     atom    4 type  1   force =    -0.00016401    0.00022384    0.00031429
     atom    5 type  1   force =     0.00025785    0.00019183   -0.00020591
     atom    6 type  1   force =    -0.00003144    0.00005074    0.00017306
     atom    7 type  2   force =     0.00010224    0.00041299   -0.00001757
     atom    8 type  2   force =    -0.00010224   -0.00041299    0.00001757
     atom    9 type  3   force =     0.00009838   -0.00023928   -0.00008449
     atom   10 type  3   force =    -0.00009838    0.00023928    0.00008449

     Total force =     0.001105     Total SCF correction =     0.000113
     SCF correction compared to forces is large: reduce conv_thr to get better values


     Computing stress (Cartesian axis) and pressure

          total   stress  (Ry/bohr**3)                   (kbar)     P=      -64.97
  -0.00091519  -0.00002867   0.00003615         -134.63       -4.22        5.32
  -0.00002867  -0.00021299  -0.00013568           -4.22      -31.33      -19.96
   0.00003615  -0.00013568  -0.00019687            5.32      -19.96      -28.96

     Energy error            =      2.6E-05 Ry
     Gradient error          =      4.1E-04 Ry/Bohr

     bfgs converged in  10 scf cycles and   9 bfgs steps
     (criteria: energy <  1.0E-04 Ry, force <  1.0E-03 Ry/Bohr)

     End of BFGS Geometry Optimization

     Final energy             =    -469.4628865332 Ry

     File ./Aknew_.bfgs deleted, as requested
Begin final coordinates

ATOMIC_POSITIONS (angstrom)
O             7.0495012558        4.4152274838        0.8078308476
O             6.2187688068        3.9251257228        3.7717560413
O             7.9308040868        1.7673291311        2.2368687806
O             5.3347506492        1.4425574733        3.1446692720
O             6.1654830982        1.9326592343        0.1807440783
O             4.4534478182        4.0904558260        1.7156313389
Mg            4.5054132440        2.1106330378        1.4216512095
Mg            7.8788386610        3.7471519193        2.5308489101
Si            1.9735923876        0.9374523434        0.6300986365
Si           10.4106595174        4.9203326137        3.3224014831
End final coordinates



     Writing all to output data dir ./Aknew_.save/

     init_run     :      9.28s CPU      9.44s WALL (       1 calls)
     electrons    :   1149.03s CPU   1158.65s WALL (      10 calls)
     update_pot   :     26.00s CPU     26.17s WALL (       9 calls)
     forces       :     39.21s CPU     39.41s WALL (      10 calls)
     stress       :     71.78s CPU     71.94s WALL (      10 calls)

     Called by init_run:
     wfcinit      :      5.27s CPU      5.37s WALL (       1 calls)
     potinit      :      1.32s CPU      1.36s WALL (       1 calls)
     hinit0       :      2.03s CPU      2.04s WALL (       1 calls)

     Called by electrons:
     c_bands      :   1020.86s CPU   1028.26s WALL (      58 calls)
     sum_band     :    116.37s CPU    117.44s WALL (      58 calls)
     v_of_rho     :      9.01s CPU     10.21s WALL (      63 calls)
     newd         :      3.16s CPU      3.28s WALL (      63 calls)
     mix_rho      :      0.35s CPU      0.35s WALL (      58 calls)

     Called by c_bands:
     init_us_2    :     22.40s CPU     22.47s WALL (   15481 calls)
     init_us_2:cp :     22.34s CPU     22.43s WALL (   15481 calls)
     cegterg      :    925.95s CPU    933.15s WALL (    6554 calls)

     Called by *egterg:
     cdiaghg      :     41.81s CPU     42.07s WALL (   30241 calls)
     h_psi        :    649.56s CPU    655.91s WALL (   31936 calls)
     s_psi        :     32.39s CPU     32.47s WALL (   31936 calls)
     g_psi        :      4.02s CPU      4.04s WALL (   25269 calls)

     Called by h_psi:
     h_psi:calbec :     57.58s CPU     57.89s WALL (   31936 calls)
     vloc_psi     :    545.40s CPU    551.28s WALL (   31936 calls)
     add_vuspsi   :     36.60s CPU     36.73s WALL (   31936 calls)

     General routines
     calbec       :     81.36s CPU     81.79s WALL (   44140 calls)
     fft          :      6.00s CPU      6.26s WALL (    1063 calls)
     ffts         :      0.37s CPU      0.37s WALL (     121 calls)
     fftw         :    549.26s CPU    554.98s WALL ( 1575240 calls)
     interpolate  :      0.79s CPU      0.80s WALL (      63 calls)

     Parallel routines

     PWSCF        :  21m37.22s CPU  21m47.92s WALL


   This run was terminated on:  13:45:51   4Aug2025            

=------------------------------------------------------------------------------=
   JOB DONE.
=------------------------------------------------------------------------------=
