
     Program PWSCF v.7.0 starts on  4Aug2025 at 11:18: 3 

     This program is part of the open-source Quantum ESPRESSO suite
     for quantum simulation of materials; please cite
         "P. Giannozzi et al., J. Phys.:Condens. Matter 21 395502 (2009);
         "P. Giannozzi et al., J. Phys.:Condens. Matter 29 465901 (2017);
         "P. Giannozzi et al., J. Chem. Phys. 152 154105 (2020);
          URL http://www.quantum-espresso.org", 
     in publications or presentations arising from this work. More details at
     http://www.quantum-espresso.org/quote

     Parallel version (MPI & OpenMP), running on      16 processor cores
     Number of MPI processes:                16
     Threads/MPI process:                     1

     MPI processes distributed on     1 nodes
     K-points division:     npool     =       4
     R & G space division:  proc/nbgrp/npool/nimage =       4
     4561 MiB available memory on the printing compute node when the environment starts

     Waiting for input...
     Reading input from standard input
Warning: card &CELL ignored
Warning: card    CELL_DYNAMICS    = 'BFGS' ignored
Warning: card    PRESS            = 150 ignored
Warning: card    PRESS_CONV_THR   = 0.05 ignored
Warning: card / ignored

     Current dimensions of program PWSCF are:
     Max number of different atomic species (ntypx) = 10
     Max number of k-points (npk) =  40000
     Max angular momentum in pseudopotentials (lmaxx) =  4
     file O.pbe-nl-rrkjus_psl.1.0.0.UPF: wavefunction(s)  2S renormalized
     file Mg.pbe-spnl-rrkjus_psl.1.0.0.UPF: wavefunction(s)  2P renormalized
     Message from routine setup:
     using ibrav=0 with symmetry is DISCOURAGED, use correct ibrav instead

     Subspace diagonalization in iterative solution of the eigenvalue problem:
     one sub-group per band group will be used
     scalapack distributed-memory algorithm (size of sub-group:  2*  2 procs)


     Parallelization info
     --------------------
     sticks:   dense  smooth     PW     G-vecs:    dense   smooth      PW
     Min         974     517    152                38838    15142    2418
     Max         975     518    153                38839    15144    2420
     Sum        3899    2071    611               155355    60573    9677

     Using Slab Decomposition



     bravais-lattice index     =            0
     lattice parameter (alat)  =      10.0725  a.u.
     unit-cell volume          =     626.0394 (a.u.)^3
     number of atoms/cell      =           10
     number of atomic types    =            3
     number of electrons       =        64.00
     number of Kohn-Sham states=           32
     kinetic-energy cutoff     =      80.0000  Ry
     charge density cutoff     =     600.0000  Ry
     scf convergence threshold =      1.0E-06
     mixing beta               =       0.7000
     number of iterations used =            8  plain     mixing
     energy convergence thresh.=      1.0E-04
     force convergence thresh. =      1.0E-03
     Exchange-correlation= PBE
                           (   1   4   3   4   0   0   0)
     nstep                     =           50


     celldm(1)=  10.072549  celldm(2)=   0.000000  celldm(3)=   0.000000
     celldm(4)=   0.000000  celldm(5)=   0.000000  celldm(6)=   0.000000

     crystal axes: (cart. coord. in units of alat)
               a(1) = (   1.000000   0.000000   0.000000 )  
               a(2) = (   0.598680   0.800988   0.012015 )  
               a(3) = (   0.598680   0.311098   0.769483 )  

     reciprocal axes: (cart. coord. in units 2 pi/alat)
               b(1) = (  1.000000 -0.740246 -0.478752 )  
               b(2) = (  0.000000  1.256075 -0.507824 )  
               b(3) = (  0.000000 -0.019613  1.307502 )  


     PseudoPot. # 1 for O  read from file:
     /home/tim/espresso/pseudo/O.pbe-nl-rrkjus_psl.1.0.0.UPF
     MD5 check sum: 233c8028909f741e7889d61785a595bc
     Pseudo is Ultrasoft + core correction, Zval =  6.0
     Generated using 'atomic' code by A. Dal Corso  v.7.0
     Using radial grid of 1095 points,  4 beta functions with: 
                l(1) =   0
                l(2) =   0
                l(3) =   1
                l(4) =   1
     Q(r) pseudized with 0 coefficients 


     PseudoPot. # 2 for Mg read from file:
     /home/tim/espresso/pseudo/Mg.pbe-spnl-rrkjus_psl.1.0.0.UPF
     MD5 check sum: 37caad9c05fe2a5f639d8b65b442f5f9
     Pseudo is Ultrasoft + core correction, Zval = 10.0
     Generated using 'atomic' code by A. Dal Corso  v.7.0
     Using radial grid of 1129 points,  4 beta functions with: 
                l(1) =   0
                l(2) =   0
                l(3) =   1
                l(4) =   1
     Q(r) pseudized with 0 coefficients 


     PseudoPot. # 3 for Si read from file:
     /home/tim/espresso/pseudo/Si.pbe-nl-rrkjus_psl.1.0.0.UPF
     MD5 check sum: ceeb670d53204f1f4f48a0a0dd9ca3d4
     Pseudo is Ultrasoft + core correction, Zval =  4.0
     Generated using 'atomic' code by A. Dal Corso  v.7.0
     Using radial grid of 1141 points,  4 beta functions with: 
                l(1) =   0
                l(2) =   0
                l(3) =   1
                l(4) =   1
     Q(r) pseudized with 0 coefficients 


     atomic species   valence    mass     pseudopotential
        O              6.00    15.99900     O ( 1.00)
        Mg            10.00    24.30500     Mg( 1.00)
        Si             4.00    28.08500     Si( 1.00)

      2 Sym. Ops., with inversion, found



   Cartesian axes

     site n.     atom                  positions (alat units)
         1           O   tau(   1) = (   1.2559284   0.8282365   0.1683513  )
         2           O   tau(   2) = (   1.1121132   0.7473876   0.7414844  )
         3           O   tau(   3) = (   1.4134878   0.3382111   0.4350772  )
         4           O   tau(   4) = (   0.9414321   0.2838495   0.6131469  )
         5           O   tau(   5) = (   1.0852472   0.3646983   0.0400138  )
         6           O   tau(   6) = (   0.7838726   0.7738748   0.3464210  )
         7           Mg  tau(   7) = (   0.7921728   0.4009193   0.2817388  )
         8           Mg  tau(   8) = (   1.4051876   0.7111666   0.4997594  )
         9           Si  tau(   9) = (   0.3469074   0.1755701   0.1233787  )
        10           Si  tau(  10) = (   1.8504530   0.9365158   0.6581195  )

     number of k points=   406

     Number of k-points >= 100: set verbosity='high' to print them.

     Dense  grid:   155355 G-vectors     FFT dimensions: (  80,  80,  81)

     Smooth grid:    60573 G-vectors     FFT dimensions: (  60,  60,  60)

     Estimated max dynamical RAM per process >     135.71 MB

     Estimated total dynamical RAM >       2.01 GB

     Check: negative core charge=   -0.000002

     Initial potential from superposition of free atoms

     starting charge      63.9970, renormalised to      64.0000
     Starting wfcs are   42 randomized atomic wfcs

     total cpu time spent up to now is        9.1 secs

     per-process dynamical memory:   133.3 Mb

     Self-consistent Calculation

     iteration #  1     ecut=    80.00 Ry     beta= 0.70
     Davidson diagonalization with overlap
     ethr =  1.00E-02,  avg # of iterations =  2.0

     total cpu time spent up to now is       22.6 secs

     total energy              =    -468.52396748 Ry
     estimated scf accuracy    <       2.08117199 Ry

     iteration #  2     ecut=    80.00 Ry     beta= 0.70
     Davidson diagonalization with overlap
     ethr =  3.25E-03,  avg # of iterations =  3.0

     total cpu time spent up to now is       40.3 secs

     total energy              =    -469.22302818 Ry
     estimated scf accuracy    <       1.43652711 Ry

     iteration #  3     ecut=    80.00 Ry     beta= 0.70
     Davidson diagonalization with overlap
     ethr =  2.24E-03,  avg # of iterations =  2.0

     total cpu time spent up to now is       54.8 secs

     total energy              =    -469.41774246 Ry
     estimated scf accuracy    <       0.05478703 Ry

     iteration #  4     ecut=    80.00 Ry     beta= 0.70
     Davidson diagonalization with overlap
     ethr =  8.56E-05,  avg # of iterations =  5.2

     total cpu time spent up to now is       74.7 secs

     total energy              =    -469.47366895 Ry
     estimated scf accuracy    <       0.07331159 Ry

     iteration #  5     ecut=    80.00 Ry     beta= 0.70
     Davidson diagonalization with overlap
     ethr =  8.56E-05,  avg # of iterations =  2.0

     total cpu time spent up to now is       86.2 secs

     total energy              =    -469.46604781 Ry
     estimated scf accuracy    <       0.02633458 Ry

     iteration #  6     ecut=    80.00 Ry     beta= 0.70
     Davidson diagonalization with overlap
     ethr =  4.11E-05,  avg # of iterations =  2.0

     total cpu time spent up to now is      100.0 secs

     total energy              =    -469.47006256 Ry
     estimated scf accuracy    <       0.00126913 Ry

     iteration #  7     ecut=    80.00 Ry     beta= 0.70
     Davidson diagonalization with overlap
     ethr =  1.98E-06,  avg # of iterations =  5.5

     total cpu time spent up to now is      121.0 secs

     total energy              =    -469.47111148 Ry
     estimated scf accuracy    <       0.00005174 Ry

     iteration #  8     ecut=    80.00 Ry     beta= 0.70
     Davidson diagonalization with overlap
     ethr =  8.08E-08,  avg # of iterations =  5.5

     total cpu time spent up to now is      143.8 secs

     total energy              =    -469.47073830 Ry
     estimated scf accuracy    <       0.00149888 Ry

     iteration #  9     ecut=    80.00 Ry     beta= 0.70
     Davidson diagonalization with overlap
     ethr =  8.08E-08,  avg # of iterations =  5.0

     total cpu time spent up to now is      164.5 secs

     total energy              =    -469.47087333 Ry
     estimated scf accuracy    <       0.00008185 Ry

     iteration # 10     ecut=    80.00 Ry     beta= 0.70
     Davidson diagonalization with overlap
     ethr =  8.08E-08,  avg # of iterations =  3.0

     total cpu time spent up to now is      180.7 secs

     End of self-consistent calculation

     Number of k-points >= 100: set verbosity='high' to print the bands.

     highest occupied level (ev):     7.1983

!    total energy              =    -469.47089346 Ry
     estimated scf accuracy    <       0.00000005 Ry

     The total energy is the sum of the following terms:
     one-electron contribution =    -223.94798322 Ry
     hartree contribution      =     144.05015609 Ry
     xc contribution           =     -91.05964048 Ry
     ewald contribution        =    -298.51342585 Ry

     convergence has been achieved in  10 iterations

     Forces acting on atoms (cartesian axes, Ry/au):

     atom    1 type  1   force =    -0.00801716   -0.00593174   -0.01058244
     atom    2 type  1   force =    -0.00204820    0.00101124    0.00147332
     atom    3 type  1   force =     0.00077125   -0.00145476   -0.00660934
     atom    4 type  1   force =     0.00801716    0.00593174    0.01058244
     atom    5 type  1   force =     0.00204820   -0.00101124   -0.00147332
     atom    6 type  1   force =    -0.00077125    0.00145476    0.00660934
     atom    7 type  2   force =     0.00257655    0.00346304   -0.00271672
     atom    8 type  2   force =    -0.00257655   -0.00346304    0.00271672
     atom    9 type  3   force =     0.00509062   -0.01327952    0.00092914
     atom   10 type  3   force =    -0.00509062    0.01327952   -0.00092914

     Total force =     0.031444     Total SCF correction =     0.000626


     Computing stress (Cartesian axis) and pressure

          total   stress  (Ry/bohr**3)                   (kbar)     P=      -48.83
  -0.00019183   0.00003285   0.00006185          -28.22        4.83        9.10
   0.00003285  -0.00010496  -0.00021127            4.83      -15.44      -31.08
   0.00006185  -0.00021127  -0.00069898            9.10      -31.08     -102.82


     BFGS Geometry Optimization
     Energy error            =      0.0E+00 Ry
     Gradient error          =      1.3E-02 Ry/Bohr

     number of scf cycles    =   1
     number of bfgs steps    =   0

     energy             new  =    -469.4708934608 Ry

     new trust radius        =       0.0145412623 bohr
     new conv_thr            =       0.0000010000 Ry


ATOMIC_POSITIONS (angstrom)
O             6.6900606905        4.4114965826        0.8917396882
O             5.9266610875        3.9842329838        3.9530124961
O             7.5345286842        1.8019505544        2.3155351068
O             5.0222289483        1.5161029575        3.2737731656
O             5.7856285513        1.9433665563        0.2125003576
O             4.1777609547        4.1256489858        1.8499777469
Mg            4.2237737807        2.1387979447        1.5002759640
Mg            7.4885158582        3.7888015954        2.6652368897
Si            1.8517669338        0.9287902120        0.6581203753
Si            9.8605227051        4.9988093281        3.5073924785



     Writing config-only to output data dir ./Aknew_.save/
     NEW-OLD atomic charge density approx. for the potential

     Check: negative core charge=   -0.000002

     total cpu time spent up to now is      196.6 secs

     per-process dynamical memory:   141.9 Mb

     Self-consistent Calculation

     iteration #  1     ecut=    80.00 Ry     beta= 0.70
     Davidson diagonalization with overlap
     ethr =  1.00E-06,  avg # of iterations =  4.6

     total cpu time spent up to now is      216.9 secs

     total energy              =    -469.47155508 Ry
     estimated scf accuracy    <       0.00013482 Ry

     iteration #  2     ecut=    80.00 Ry     beta= 0.70
     Davidson diagonalization with overlap
     ethr =  2.11E-07,  avg # of iterations =  3.3

     total cpu time spent up to now is      231.8 secs

     total energy              =    -469.47159320 Ry
     estimated scf accuracy    <       0.00001976 Ry

     iteration #  3     ecut=    80.00 Ry     beta= 0.70
     Davidson diagonalization with overlap
     ethr =  3.09E-08,  avg # of iterations =  4.4

     total cpu time spent up to now is      248.4 secs

     total energy              =    -469.47160099 Ry
     estimated scf accuracy    <       0.00000179 Ry

     iteration #  4     ecut=    80.00 Ry     beta= 0.70
     Davidson diagonalization with overlap
     ethr =  2.80E-09,  avg # of iterations =  3.5

     total cpu time spent up to now is      265.3 secs

     End of self-consistent calculation

     Number of k-points >= 100: set verbosity='high' to print the bands.

     highest occupied level (ev):     7.2100

!    total energy              =    -469.47160145 Ry
     estimated scf accuracy    <       0.00000024 Ry

     The total energy is the sum of the following terms:
     one-electron contribution =    -223.84915272 Ry
     hartree contribution      =     143.99879723 Ry
     xc contribution           =     -91.06765456 Ry
     ewald contribution        =    -298.55359140 Ry

     convergence has been achieved in   4 iterations

     Forces acting on atoms (cartesian axes, Ry/au):

     atom    1 type  1   force =    -0.00295656   -0.00420985   -0.00420459
     atom    2 type  1   force =    -0.00060130    0.00201793    0.00069840
     atom    3 type  1   force =     0.00171214   -0.00086372   -0.00497589
     atom    4 type  1   force =     0.00295656    0.00420985    0.00420459
     atom    5 type  1   force =     0.00060130   -0.00201793   -0.00069840
     atom    6 type  1   force =    -0.00171214    0.00086372    0.00497589
     atom    7 type  2   force =     0.00262043    0.00347328   -0.00240246
     atom    8 type  2   force =    -0.00262043   -0.00347328    0.00240246
     atom    9 type  3   force =     0.00098076   -0.00394738   -0.00014910
     atom   10 type  3   force =    -0.00098076    0.00394738    0.00014910

     Total force =     0.015412     Total SCF correction =     0.001504


     Computing stress (Cartesian axis) and pressure

          total   stress  (Ry/bohr**3)                   (kbar)     P=      -46.80
  -0.00017978   0.00004483   0.00007193          -26.45        6.59       10.58
   0.00004483  -0.00009691  -0.00018658            6.59      -14.26      -27.45
   0.00007193  -0.00018658  -0.00067776           10.58      -27.45      -99.70

     Energy error            =      7.1E-04 Ry
     Gradient error          =      5.0E-03 Ry/Bohr

     number of scf cycles    =   2
     number of bfgs steps    =   1

     energy             old  =    -469.4708934608 Ry
     energy             new  =    -469.4716014500 Ry

     CASE: energy            _new < energy            _old

     new trust radius        =       0.0140046500 bohr
     new conv_thr            =       0.0000000498 Ry


ATOMIC_POSITIONS (angstrom)
O             6.6866175837        4.4070518058        0.8869115384
O             5.9259259577        3.9862105572        3.9537907156
O             7.5361993455        1.8010187836        2.3103150787
O             5.0256720551        1.5205477343        3.2786013154
O             5.7863636811        1.9413889829        0.2117221381
O             4.1760902934        4.1265807566        1.8551977750
Mg            4.2264472933        2.1423455803        1.4977952436
Mg            7.4858423456        3.7852539598        2.6677176101
Si            1.8531120779        0.9239781872        0.6580580728
Si            9.8591775610        5.0036213529        3.5074547810



     Writing config-only to output data dir ./Aknew_.save/
     NEW-OLD atomic charge density approx. for the potential

     Check: negative core charge=   -0.000002

     total cpu time spent up to now is      280.3 secs

     per-process dynamical memory:   141.9 Mb

     Self-consistent Calculation

     iteration #  1     ecut=    80.00 Ry     beta= 0.70
     Davidson diagonalization with overlap
     ethr =  1.00E-06,  avg # of iterations =  7.0

     total cpu time spent up to now is      305.4 secs

     total energy              =    -469.47186216 Ry
     estimated scf accuracy    <       0.00012503 Ry

     iteration #  2     ecut=    80.00 Ry     beta= 0.70
     Davidson diagonalization with overlap
     ethr =  1.95E-07,  avg # of iterations =  2.0

     total cpu time spent up to now is      318.5 secs

     total energy              =    -469.47188867 Ry
     estimated scf accuracy    <       0.00001213 Ry

     iteration #  3     ecut=    80.00 Ry     beta= 0.70
     Davidson diagonalization with overlap
     ethr =  1.90E-08,  avg # of iterations =  2.2

     total cpu time spent up to now is      333.0 secs

     total energy              =    -469.47189186 Ry
     estimated scf accuracy    <       0.00000123 Ry

     iteration #  4     ecut=    80.00 Ry     beta= 0.70
     Davidson diagonalization with overlap
     ethr =  1.91E-09,  avg # of iterations =  4.1

     total cpu time spent up to now is      349.6 secs

     total energy              =    -469.47189224 Ry
     estimated scf accuracy    <       0.00000018 Ry

     iteration #  5     ecut=    80.00 Ry     beta= 0.70
     Davidson diagonalization with overlap
     ethr =  2.79E-10,  avg # of iterations =  3.7

     total cpu time spent up to now is      365.1 secs

     End of self-consistent calculation

     Number of k-points >= 100: set verbosity='high' to print the bands.

     highest occupied level (ev):     7.2186

!    total energy              =    -469.47189229 Ry
     estimated scf accuracy    <       0.00000002 Ry

     The total energy is the sum of the following terms:
     one-electron contribution =    -223.73732542 Ry
     hartree contribution      =     143.94225261 Ry
     xc contribution           =     -91.07345184 Ry
     ewald contribution        =    -298.60336763 Ry

     convergence has been achieved in   5 iterations

     Forces acting on atoms (cartesian axes, Ry/au):

     atom    1 type  1   force =     0.00076958   -0.00204931    0.00089862
     atom    2 type  1   force =     0.00076439    0.00183667    0.00022080
     atom    3 type  1   force =     0.00151457   -0.00102099   -0.00262088
     atom    4 type  1   force =    -0.00076958    0.00204931   -0.00089862
     atom    5 type  1   force =    -0.00076439   -0.00183667   -0.00022080
     atom    6 type  1   force =    -0.00151457    0.00102099    0.00262088
     atom    7 type  2   force =     0.00177921    0.00244462   -0.00087834
     atom    8 type  2   force =    -0.00177921   -0.00244462    0.00087834
     atom    9 type  3   force =    -0.00137103    0.00223930    0.00026704
     atom   10 type  3   force =     0.00137103   -0.00223930   -0.00026704

     Total force =     0.008566     Total SCF correction =     0.000287


     Computing stress (Cartesian axis) and pressure

          total   stress  (Ry/bohr**3)                   (kbar)     P=      -45.05
  -0.00017246   0.00005177   0.00008136          -25.37        7.62       11.97
   0.00005177  -0.00009002  -0.00016214            7.62      -13.24      -23.85
   0.00008136  -0.00016214  -0.00065616           11.97      -23.85      -96.52

     Energy error            =      2.9E-04 Ry
     Gradient error          =      2.6E-03 Ry/Bohr

     number of scf cycles    =   3
     number of bfgs steps    =   2

     energy             old  =    -469.4716014500 Ry
     energy             new  =    -469.4718922880 Ry

     CASE: energy            _new < energy            _old

     new trust radius        =       0.0064387603 bohr
     new conv_thr            =       0.0000000262 Ry


ATOMIC_POSITIONS (angstrom)
O             6.6860284430        4.4045915207        0.8860120505
O             5.9261723615        3.9878021386        3.9541605912
O             7.5375137575        1.8000986880        2.3073092403
O             5.0262611958        1.5230080194        3.2795008033
O             5.7861172773        1.9397974015        0.2113522625
O             4.1747758814        4.1275008522        1.8582036134
Mg            4.2282187853        2.1447544701        1.4966380867
Mg            7.4840708536        3.7828450700        2.6688747670
Si            1.8527722745        0.9237782699        0.6582884966
Si            9.8595173644        5.0038212702        3.5072243572



     Writing config-only to output data dir ./Aknew_.save/
     NEW-OLD atomic charge density approx. for the potential

     Check: negative core charge=   -0.000002

     total cpu time spent up to now is      380.7 secs

     per-process dynamical memory:   141.9 Mb

     Self-consistent Calculation

     iteration #  1     ecut=    80.00 Ry     beta= 0.70
     Davidson diagonalization with overlap
     ethr =  1.00E-06,  avg # of iterations =  5.5

     Threshold (ethr) on eigenvalues was too large:
     Diagonalizing with lowered threshold

     Davidson diagonalization with overlap
     ethr =  3.02E-08,  avg # of iterations =  5.2

     total cpu time spent up to now is      419.4 secs

     total energy              =    -469.47196949 Ry
     estimated scf accuracy    <       0.00002271 Ry

     iteration #  2     ecut=    80.00 Ry     beta= 0.70
     Davidson diagonalization with overlap
     ethr =  3.55E-08,  avg # of iterations =  2.0

     total cpu time spent up to now is      432.7 secs

     total energy              =    -469.47197318 Ry
     estimated scf accuracy    <       0.00000080 Ry

     iteration #  3     ecut=    80.00 Ry     beta= 0.70
     Davidson diagonalization with overlap
     ethr =  1.24E-09,  avg # of iterations =  3.6

     total cpu time spent up to now is      448.6 secs

     total energy              =    -469.47197342 Ry
     estimated scf accuracy    <       0.00000009 Ry

     iteration #  4     ecut=    80.00 Ry     beta= 0.70
     Davidson diagonalization with overlap
     ethr =  1.47E-10,  avg # of iterations =  3.9

     total cpu time spent up to now is      463.9 secs

     End of self-consistent calculation

     Number of k-points >= 100: set verbosity='high' to print the bands.

     highest occupied level (ev):     7.2192

!    total energy              =    -469.47197344 Ry
     estimated scf accuracy    <       0.00000001 Ry

     The total energy is the sum of the following terms:
     one-electron contribution =    -223.68688658 Ry
     hartree contribution      =     143.91846941 Ry
     xc contribution           =     -91.07428400 Ry
     ewald contribution        =    -298.62927227 Ry

     convergence has been achieved in   4 iterations

     Forces acting on atoms (cartesian axes, Ry/au):

     atom    1 type  1   force =     0.00113780   -0.00107719    0.00160623
     atom    2 type  1   force =     0.00104574    0.00112434    0.00022120
     atom    3 type  1   force =     0.00107578   -0.00089687   -0.00136237
     atom    4 type  1   force =    -0.00113780    0.00107719   -0.00160623
     atom    5 type  1   force =    -0.00104574   -0.00112434   -0.00022120
     atom    6 type  1   force =    -0.00107578    0.00089687    0.00136237
     atom    7 type  2   force =     0.00126565    0.00170294   -0.00015190
     atom    8 type  2   force =    -0.00126565   -0.00170294    0.00015190
     atom    9 type  3   force =    -0.00091469    0.00254542    0.00048052
     atom   10 type  3   force =     0.00091469   -0.00254542   -0.00048052

     Total force =     0.006831     Total SCF correction =     0.000218


     Computing stress (Cartesian axis) and pressure

          total   stress  (Ry/bohr**3)                   (kbar)     P=      -44.83
  -0.00017460   0.00005270   0.00008293          -25.68        7.75       12.20
   0.00005270  -0.00008844  -0.00015524            7.75      -13.01      -22.84
   0.00008293  -0.00015524  -0.00065115           12.20      -22.84      -95.79

     Energy error            =      8.1E-05 Ry
     Gradient error          =      2.5E-03 Ry/Bohr

     number of scf cycles    =   4
     number of bfgs steps    =   3

     energy             old  =    -469.4718922880 Ry
     energy             new  =    -469.4719734408 Ry

     CASE: energy            _new < energy            _old

     new trust radius        =       0.0070826363 bohr
     new conv_thr            =       0.0000000100 Ry


ATOMIC_POSITIONS (angstrom)
O             6.6860787472        4.4020267624        0.8861112671
O             5.9270262059        3.9895984284        3.9546474931
O             7.5391303082        1.7987901319        2.3041912726
O             5.0262108916        1.5255727777        3.2794015867
O             5.7852634329        1.9380011117        0.2108653606
O             4.1731593307        4.1288094083        1.8613215811
Mg            4.2303624501        2.1476439867        1.4957341657
Mg            7.4819271888        3.7799555534        2.6697786880
Si            1.8522542394        0.9248019357        0.6588680148
Si            9.8600353995        5.0027976044        3.5066448390



     Writing config-only to output data dir ./Aknew_.save/
     NEW-OLD atomic charge density approx. for the potential

     Check: negative core charge=   -0.000002

     total cpu time spent up to now is      479.3 secs

     per-process dynamical memory:   141.9 Mb

     Self-consistent Calculation

     iteration #  1     ecut=    80.00 Ry     beta= 0.70
     Davidson diagonalization with overlap
     ethr =  1.00E-06,  avg # of iterations =  7.0

     Threshold (ethr) on eigenvalues was too large:
     Diagonalizing with lowered threshold

     Davidson diagonalization with overlap
     ethr =  3.26E-08,  avg # of iterations =  4.1

     total cpu time spent up to now is      517.9 secs

     total energy              =    -469.47203074 Ry
     estimated scf accuracy    <       0.00002441 Ry

     iteration #  2     ecut=    80.00 Ry     beta= 0.70
     Davidson diagonalization with overlap
     ethr =  3.81E-08,  avg # of iterations =  2.0

     total cpu time spent up to now is      531.0 secs

     total energy              =    -469.47203448 Ry
     estimated scf accuracy    <       0.00000069 Ry

     iteration #  3     ecut=    80.00 Ry     beta= 0.70
     Davidson diagonalization with overlap
     ethr =  1.07E-09,  avg # of iterations =  4.5

     total cpu time spent up to now is      547.8 secs

     total energy              =    -469.47203467 Ry
     estimated scf accuracy    <       0.00000010 Ry

     iteration #  4     ecut=    80.00 Ry     beta= 0.70
     Davidson diagonalization with overlap
     ethr =  1.49E-10,  avg # of iterations =  3.8

     total cpu time spent up to now is      563.4 secs

     total energy              =    -469.47203470 Ry
     estimated scf accuracy    <       0.00000004 Ry

     iteration #  5     ecut=    80.00 Ry     beta= 0.70
     Davidson diagonalization with overlap
     ethr =  5.53E-11,  avg # of iterations =  3.1

     total cpu time spent up to now is      579.9 secs

     End of self-consistent calculation

     Number of k-points >= 100: set verbosity='high' to print the bands.

     highest occupied level (ev):     7.2177

!    total energy              =    -469.47203470 Ry
     estimated scf accuracy    <          2.2E-09 Ry

     The total energy is the sum of the following terms:
     one-electron contribution =    -223.64353505 Ry
     hartree contribution      =     143.89967416 Ry
     xc contribution           =     -91.07391693 Ry
     ewald contribution        =    -298.65425688 Ry

     convergence has been achieved in   5 iterations

     Forces acting on atoms (cartesian axes, Ry/au):

     atom    1 type  1   force =     0.00062272   -0.00029227    0.00112601
     atom    2 type  1   force =     0.00073410    0.00016097    0.00031951
     atom    3 type  1   force =     0.00043722   -0.00057850   -0.00008144
     atom    4 type  1   force =    -0.00062272    0.00029227   -0.00112601
     atom    5 type  1   force =    -0.00073410   -0.00016097   -0.00031951
     atom    6 type  1   force =    -0.00043722    0.00057850    0.00008144
     atom    7 type  2   force =     0.00059008    0.00076015    0.00054375
     atom    8 type  2   force =    -0.00059008   -0.00076015   -0.00054375
     atom    9 type  3   force =     0.00016752    0.00147750    0.00045269
     atom   10 type  3   force =    -0.00016752   -0.00147750   -0.00045269

     Total force =     0.003627     Total SCF correction =     0.000075


     Computing stress (Cartesian axis) and pressure

          total   stress  (Ry/bohr**3)                   (kbar)     P=      -44.88
  -0.00018046   0.00005284   0.00008186          -26.55        7.77       12.04
   0.00005284  -0.00008625  -0.00015107            7.77      -12.69      -22.22
   0.00008186  -0.00015107  -0.00064854           12.04      -22.22      -95.40

     Energy error            =      6.1E-05 Ry
     Gradient error          =      1.5E-03 Ry/Bohr

     number of scf cycles    =   5
     number of bfgs steps    =   4

     energy             old  =    -469.4719734408 Ry
     energy             new  =    -469.4720347037 Ry

     CASE: energy            _new < energy            _old

     new trust radius        =       0.0038428855 bohr
     new conv_thr            =       0.0000000100 Ry


ATOMIC_POSITIONS (angstrom)
O             6.6863676076        4.4007933465        0.8867240079
O             5.9277919260        3.9903561294        3.9550834029
O             7.5400240565        1.7978918048        2.3029189028
O             5.0259220312        1.5268061936        3.2787888459
O             5.7844977128        1.9372434107        0.2104294508
O             4.1722655824        4.1297077354        1.8625939509
Mg            4.2315853371        2.1492684838        1.4957650363
Mg            7.4807043018        3.7783310563        2.6697478174
Si            1.8523097388        0.9259493709        0.6594019801
Si            9.8599799001        5.0016501692        3.5061108737



     Writing config-only to output data dir ./Aknew_.save/
     NEW-OLD atomic charge density approx. for the potential

     Check: negative core charge=   -0.000002

     total cpu time spent up to now is      594.8 secs

     per-process dynamical memory:   141.9 Mb

     Self-consistent Calculation

     iteration #  1     ecut=    80.00 Ry     beta= 0.70
     Davidson diagonalization with overlap
     ethr =  1.00E-06,  avg # of iterations =  4.7

     Threshold (ethr) on eigenvalues was too large:
     Diagonalizing with lowered threshold

     Davidson diagonalization with overlap
     ethr =  7.76E-09,  avg # of iterations =  7.0

     total cpu time spent up to now is      634.9 secs

     total energy              =    -469.47204961 Ry
     estimated scf accuracy    <       0.00000674 Ry

     iteration #  2     ecut=    80.00 Ry     beta= 0.70
     Davidson diagonalization with overlap
     ethr =  1.05E-08,  avg # of iterations =  2.0

     total cpu time spent up to now is      649.2 secs

     total energy              =    -469.47205074 Ry
     estimated scf accuracy    <       0.00000035 Ry

     iteration #  3     ecut=    80.00 Ry     beta= 0.70
     Davidson diagonalization with overlap
     ethr =  5.51E-10,  avg # of iterations =  2.4

     total cpu time spent up to now is      663.6 secs

     total energy              =    -469.47205082 Ry
     estimated scf accuracy    <       0.00000005 Ry

     iteration #  4     ecut=    80.00 Ry     beta= 0.70
     Davidson diagonalization with overlap
     ethr =  8.50E-11,  avg # of iterations =  3.6

     total cpu time spent up to now is      679.0 secs

     End of self-consistent calculation

     Number of k-points >= 100: set verbosity='high' to print the bands.

     highest occupied level (ev):     7.2162

!    total energy              =    -469.47205083 Ry
     estimated scf accuracy    <          9.0E-09 Ry

     The total energy is the sum of the following terms:
     one-electron contribution =    -223.62886773 Ry
     hartree contribution      =     143.89407560 Ry
     xc contribution           =     -91.07315047 Ry
     ewald contribution        =    -298.66410823 Ry

     convergence has been achieved in   4 iterations

     Forces acting on atoms (cartesian axes, Ry/au):

     atom    1 type  1   force =    -0.00003738   -0.00009581    0.00026665
     atom    2 type  1   force =     0.00019558   -0.00028410    0.00032968
     atom    3 type  1   force =     0.00007046   -0.00030692    0.00042514
     atom    4 type  1   force =     0.00003738    0.00009581   -0.00026665
     atom    5 type  1   force =    -0.00019558    0.00028410   -0.00032968
     atom    6 type  1   force =    -0.00007046    0.00030692   -0.00042514
     atom    7 type  2   force =     0.00028735    0.00027392    0.00070116
     atom    8 type  2   force =    -0.00028735   -0.00027392   -0.00070116
     atom    9 type  3   force =     0.00071119    0.00037740    0.00021520
     atom   10 type  3   force =    -0.00071119   -0.00037740   -0.00021520

     Total force =     0.001966     Total SCF correction =     0.000127


     Computing stress (Cartesian axis) and pressure

          total   stress  (Ry/bohr**3)                   (kbar)     P=      -45.08
  -0.00018548   0.00005276   0.00008003          -27.29        7.76       11.77
   0.00005276  -0.00008465  -0.00015022            7.76      -12.45      -22.10
   0.00008003  -0.00015022  -0.00064917           11.77      -22.10      -95.50

     Energy error            =      1.6E-05 Ry
     Gradient error          =      7.1E-04 Ry/Bohr

     bfgs converged in   6 scf cycles and   5 bfgs steps
     (criteria: energy <  1.0E-04 Ry, force <  1.0E-03 Ry/Bohr)

     End of BFGS Geometry Optimization

     Final energy             =    -469.4720508315 Ry

     File ./Aknew_.bfgs deleted, as requested
Begin final coordinates

ATOMIC_POSITIONS (angstrom)
O             6.6863676076        4.4007933465        0.8867240079
O             5.9277919260        3.9903561294        3.9550834029
O             7.5400240565        1.7978918048        2.3029189028
O             5.0259220312        1.5268061936        3.2787888459
O             5.7844977128        1.9372434107        0.2104294508
O             4.1722655824        4.1297077354        1.8625939509
Mg            4.2315853371        2.1492684838        1.4957650363
Mg            7.4807043018        3.7783310563        2.6697478174
Si            1.8523097388        0.9259493709        0.6594019801
Si            9.8599799001        5.0016501692        3.5061108737
End final coordinates



     Writing all to output data dir ./Aknew_.save/

     init_run     :      8.75s CPU      8.91s WALL (       1 calls)
     electrons    :    587.77s CPU    592.96s WALL (       6 calls)
     update_pot   :     17.76s CPU     17.81s WALL (       5 calls)
     forces       :     24.27s CPU     24.37s WALL (       6 calls)
     stress       :     44.14s CPU     44.26s WALL (       6 calls)

     Called by init_run:
     wfcinit      :      4.51s CPU      4.61s WALL (       1 calls)
     potinit      :      1.43s CPU      1.46s WALL (       1 calls)
     hinit0       :      2.73s CPU      2.74s WALL (       1 calls)

     Called by electrons:
     c_bands      :    523.39s CPU    527.39s WALL (      35 calls)
     sum_band     :     58.15s CPU     58.67s WALL (      35 calls)
     v_of_rho     :      4.57s CPU      5.22s WALL (      38 calls)
     newd         :      2.82s CPU      2.92s WALL (      38 calls)
     mix_rho      :      0.20s CPU      0.20s WALL (      35 calls)

     Called by c_bands:
     init_us_2    :     11.44s CPU     11.48s WALL (    8466 calls)
     init_us_2:cp :     11.40s CPU     11.46s WALL (    8466 calls)
     cegterg      :    471.66s CPU    475.55s WALL (    3570 calls)

     Called by *egterg:
     cdiaghg      :     24.19s CPU     24.33s WALL (   16544 calls)
     h_psi        :    329.30s CPU    332.79s WALL (   17462 calls)
     s_psi        :     16.77s CPU     16.81s WALL (   17462 calls)
     g_psi        :      2.10s CPU      2.11s WALL (   13790 calls)

     Called by h_psi:
     h_psi:calbec :     30.96s CPU     31.12s WALL (   17462 calls)
     vloc_psi     :    274.04s CPU    277.31s WALL (   17462 calls)
     add_vuspsi   :     19.44s CPU     19.50s WALL (   17462 calls)

     General routines
     calbec       :     43.46s CPU     43.68s WALL (   24092 calls)
     fft          :      3.13s CPU      3.29s WALL (     640 calls)
     ffts         :      0.27s CPU      0.27s WALL (      73 calls)
     fftw         :    275.97s CPU    279.09s WALL (  855970 calls)
     interpolate  :      0.47s CPU      0.47s WALL (      38 calls)

     Parallel routines

     PWSCF        :  11m24.96s CPU  11m30.90s WALL


   This run was terminated on:  11:29:34   4Aug2025            

=------------------------------------------------------------------------------=
   JOB DONE.
=------------------------------------------------------------------------------=
