
     Program PWSCF v.7.0 starts on  4Aug2025 at 10:41:16 

     This program is part of the open-source Quantum ESPRESSO suite
     for quantum simulation of materials; please cite
         "P. Giannozzi et al., J. Phys.:Condens. Matter 21 395502 (2009);
         "P. Giannozzi et al., J. Phys.:Condens. Matter 29 465901 (2017);
         "P. Giannozzi et al., J. Chem. Phys. 152 154105 (2020);
          URL http://www.quantum-espresso.org", 
     in publications or presentations arising from this work. More details at
     http://www.quantum-espresso.org/quote

     Parallel version (MPI & OpenMP), running on      16 processor cores
     Number of MPI processes:                16
     Threads/MPI process:                     1

     MPI processes distributed on     1 nodes
     K-points division:     npool     =       4
     R & G space division:  proc/nbgrp/npool/nimage =       4
     4398 MiB available memory on the printing compute node when the environment starts

     Waiting for input...
     Reading input from standard input
Warning: card &CELL ignored
Warning: card    CELL_DYNAMICS    = 'BFGS' ignored
Warning: card    PRESS            = 150 ignored
Warning: card    PRESS_CONV_THR   = 0.05 ignored
Warning: card / ignored

     Current dimensions of program PWSCF are:
     Max number of different atomic species (ntypx) = 10
     Max number of k-points (npk) =  40000
     Max angular momentum in pseudopotentials (lmaxx) =  4
     file O.pbe-nl-rrkjus_psl.1.0.0.UPF: wavefunction(s)  2S renormalized
     file Mg.pbe-spnl-rrkjus_psl.1.0.0.UPF: wavefunction(s)  2P renormalized
     Message from routine setup:
     using ibrav=0 with symmetry is DISCOURAGED, use correct ibrav instead

     Subspace diagonalization in iterative solution of the eigenvalue problem:
     one sub-group per band group will be used
     scalapack distributed-memory algorithm (size of sub-group:  2*  2 procs)


     Parallelization info
     --------------------
     sticks:   dense  smooth     PW     G-vecs:    dense   smooth      PW
     Min         942     504    148                36746    14334    2268
     Max         943     505    149                36747    14335    2269
     Sum        3771    2019    593               146987    57337    9073

     Using Slab Decomposition



     bravais-lattice index     =            0
     lattice parameter (alat)  =       9.7903  a.u.
     unit-cell volume          =     592.7249 (a.u.)^3
     number of atoms/cell      =           10
     number of atomic types    =            3
     number of electrons       =        64.00
     number of Kohn-Sham states=           32
     kinetic-energy cutoff     =      80.0000  Ry
     charge density cutoff     =     600.0000  Ry
     scf convergence threshold =      1.0E-06
     mixing beta               =       0.7000
     number of iterations used =            8  plain     mixing
     energy convergence thresh.=      1.0E-04
     force convergence thresh. =      1.0E-03
     Exchange-correlation= PBE
                           (   1   4   3   4   0   0   0)
     nstep                     =           50


     celldm(1)=   9.790275  celldm(2)=   0.000000  celldm(3)=   0.000000
     celldm(4)=   0.000000  celldm(5)=   0.000000  celldm(6)=   0.000000

     crystal axes: (cart. coord. in units of alat)
               a(1) = (   1.000000   0.000000   0.000000 )  
               a(2) = (   0.599165   0.825387   0.000000 )  
               a(3) = (   0.599165   0.309251   0.765263 )  

     reciprocal axes: (cart. coord. in units 2 pi/alat)
               b(1) = (  1.000000 -0.725920 -0.489601 )  
               b(2) = (  0.000000  1.211553 -0.489601 )  
               b(3) = (  0.000000  0.000000  1.306740 )  


     PseudoPot. # 1 for O  read from file:
     /home/tim/espresso/pseudo/O.pbe-nl-rrkjus_psl.1.0.0.UPF
     MD5 check sum: 233c8028909f741e7889d61785a595bc
     Pseudo is Ultrasoft + core correction, Zval =  6.0
     Generated using 'atomic' code by A. Dal Corso  v.7.0
     Using radial grid of 1095 points,  4 beta functions with: 
                l(1) =   0
                l(2) =   0
                l(3) =   1
                l(4) =   1
     Q(r) pseudized with 0 coefficients 


     PseudoPot. # 2 for Mg read from file:
     /home/tim/espresso/pseudo/Mg.pbe-spnl-rrkjus_psl.1.0.0.UPF
     MD5 check sum: 37caad9c05fe2a5f639d8b65b442f5f9
     Pseudo is Ultrasoft + core correction, Zval = 10.0
     Generated using 'atomic' code by A. Dal Corso  v.7.0
     Using radial grid of 1129 points,  4 beta functions with: 
                l(1) =   0
                l(2) =   0
                l(3) =   1
                l(4) =   1
     Q(r) pseudized with 0 coefficients 


     PseudoPot. # 3 for Si read from file:
     /home/tim/espresso/pseudo/Si.pbe-nl-rrkjus_psl.1.0.0.UPF
     MD5 check sum: ceeb670d53204f1f4f48a0a0dd9ca3d4
     Pseudo is Ultrasoft + core correction, Zval =  4.0
     Generated using 'atomic' code by A. Dal Corso  v.7.0
     Using radial grid of 1141 points,  4 beta functions with: 
                l(1) =   0
                l(2) =   0
                l(3) =   1
                l(4) =   1
     Q(r) pseudized with 0 coefficients 


     atomic species   valence    mass     pseudopotential
        O              6.00    15.99900     O ( 1.00)
        Mg            10.00    24.30500     Mg( 1.00)
        Si             4.00    28.08500     Si( 1.00)

      2 Sym. Ops., with inversion, found



   Cartesian axes

     site n.     atom                  positions (alat units)
         1           O   tau(   1) = (   1.2562593   0.8511003   0.1558332  )
         2           O   tau(   2) = (   1.1125604   0.7592672   0.7307168  )
         3           O   tau(   3) = (   1.4136769   0.3419164   0.4301793  )
         4           O   tau(   4) = (   0.9420708   0.2835377   0.6094301  )
         5           O   tau(   5) = (   1.0857697   0.3753708   0.0345464  )
         6           O   tau(   6) = (   0.7846531   0.7927216   0.3350839  )
         7           Mg  tau(   7) = (   0.7928322   0.4092095   0.2759938  )
         8           Mg  tau(   8) = (   1.4054979   0.7254285   0.4892695  )
         9           Si  tau(   9) = (   0.3472196   0.1792126   0.1208710  )
        10           Si  tau(  10) = (   1.8511105   0.9554253   0.6443922  )

     number of k points=   504

     Number of k-points >= 100: set verbosity='high' to print them.

     Dense  grid:   146987 G-vectors     FFT dimensions: (  80,  80,  80)

     Smooth grid:    57337 G-vectors     FFT dimensions: (  60,  60,  60)

     Estimated max dynamical RAM per process >     149.57 MB

     Estimated total dynamical RAM >       2.23 GB

     Check: negative core charge=   -0.000002

     Initial potential from superposition of free atoms

     starting charge      63.9970, renormalised to      64.0000
     Starting wfcs are   42 randomized atomic wfcs

     total cpu time spent up to now is        9.1 secs

     per-process dynamical memory:   150.9 Mb

     Self-consistent Calculation

     iteration #  1     ecut=    80.00 Ry     beta= 0.70
     Davidson diagonalization with overlap
     ethr =  1.00E-02,  avg # of iterations =  2.0

     total cpu time spent up to now is       23.8 secs

     total energy              =    -468.53751229 Ry
     estimated scf accuracy    <       2.07980964 Ry

     iteration #  2     ecut=    80.00 Ry     beta= 0.70
     Davidson diagonalization with overlap
     ethr =  3.25E-03,  avg # of iterations =  3.0

     total cpu time spent up to now is       43.4 secs

     total energy              =    -469.24532700 Ry
     estimated scf accuracy    <       1.29297950 Ry

     iteration #  3     ecut=    80.00 Ry     beta= 0.70
     Davidson diagonalization with overlap
     ethr =  2.02E-03,  avg # of iterations =  2.0

     total cpu time spent up to now is       59.2 secs

     total energy              =    -469.42459383 Ry
     estimated scf accuracy    <       0.04655246 Ry

     iteration #  4     ecut=    80.00 Ry     beta= 0.70
     Davidson diagonalization with overlap
     ethr =  7.27E-05,  avg # of iterations =  5.2

     total cpu time spent up to now is       82.2 secs

     total energy              =    -469.47246651 Ry
     estimated scf accuracy    <       0.06023763 Ry

     iteration #  5     ecut=    80.00 Ry     beta= 0.70
     Davidson diagonalization with overlap
     ethr =  7.27E-05,  avg # of iterations =  2.0

     total cpu time spent up to now is       95.6 secs

     total energy              =    -469.46640688 Ry
     estimated scf accuracy    <       0.02110197 Ry

     iteration #  6     ecut=    80.00 Ry     beta= 0.70
     Davidson diagonalization with overlap
     ethr =  3.30E-05,  avg # of iterations =  2.0

     total cpu time spent up to now is      111.4 secs

     total energy              =    -469.46948639 Ry
     estimated scf accuracy    <       0.00105883 Ry

     iteration #  7     ecut=    80.00 Ry     beta= 0.70
     Davidson diagonalization with overlap
     ethr =  1.65E-06,  avg # of iterations =  5.6

     total cpu time spent up to now is      135.1 secs

     total energy              =    -469.47053858 Ry
     estimated scf accuracy    <       0.00016579 Ry

     iteration #  8     ecut=    80.00 Ry     beta= 0.70
     Davidson diagonalization with overlap
     ethr =  2.59E-07,  avg # of iterations =  3.0

     total cpu time spent up to now is      153.7 secs

     total energy              =    -469.47024201 Ry
     estimated scf accuracy    <       0.00097552 Ry

     iteration #  9     ecut=    80.00 Ry     beta= 0.70
     Davidson diagonalization with overlap
     ethr =  2.59E-07,  avg # of iterations =  3.0

     total cpu time spent up to now is      171.8 secs

     total energy              =    -469.47027994 Ry
     estimated scf accuracy    <       0.00011161 Ry

     iteration # 10     ecut=    80.00 Ry     beta= 0.70
     Davidson diagonalization with overlap
     ethr =  1.74E-07,  avg # of iterations =  2.0

     total cpu time spent up to now is      187.8 secs

     End of self-consistent calculation

     Number of k-points >= 100: set verbosity='high' to print the bands.

     highest occupied level (ev):     7.9378

!    total energy              =    -469.47030499 Ry
     estimated scf accuracy    <       0.00000090 Ry

     The total energy is the sum of the following terms:
     one-electron contribution =    -215.59188624 Ry
     hartree contribution      =     141.60107375 Ry
     xc contribution           =     -91.42221017 Ry
     ewald contribution        =    -304.05728233 Ry

     convergence has been achieved in  10 iterations

     Forces acting on atoms (cartesian axes, Ry/au):

     atom    1 type  1   force =     0.01461510   -0.00149812    0.00338719
     atom    2 type  1   force =     0.02524795    0.00029771    0.00193595
     atom    3 type  1   force =     0.00872801    0.00782302   -0.00071171
     atom    4 type  1   force =    -0.01461510    0.00149812   -0.00338719
     atom    5 type  1   force =    -0.02524795   -0.00029771   -0.00193595
     atom    6 type  1   force =    -0.00872801   -0.00782302    0.00071171
     atom    7 type  2   force =    -0.00044550    0.00179867    0.00336576
     atom    8 type  2   force =     0.00044550   -0.00179867   -0.00336576
     atom    9 type  3   force =    -0.00226644   -0.00633596    0.00054753
     atom   10 type  3   force =     0.00226644    0.00633596   -0.00054753

     Total force =     0.046192     Total SCF correction =     0.000455


     Computing stress (Cartesian axis) and pressure

          total   stress  (Ry/bohr**3)                   (kbar)     P=       66.79
   0.00091121   0.00003237  -0.00001537          134.04        4.76       -2.26
   0.00003237   0.00021042   0.00003837            4.76       30.95        5.64
  -0.00001537   0.00003837   0.00024042           -2.26        5.64       35.37


     BFGS Geometry Optimization
     Energy error            =      0.0E+00 Ry
     Gradient error          =      2.5E-02 Ry/Bohr

     number of scf cycles    =   1
     number of bfgs steps    =   0

     energy             new  =    -469.4703049874 Ry

     new trust radius        =       0.0253238115 bohr
     new conv_thr            =       0.0000010000 Ry


ATOMIC_POSITIONS (angstrom)
O             6.5161499281        4.4085794556        0.8091314787
O             5.7773024981        3.9337615036        3.7867149924
O             7.3285823238        1.7755366881        2.2282922580
O             4.8729370368        1.4697418998        3.1555369482
O             5.6117844667        1.9445598519        0.1779534345
O             4.0605046411        4.1027846673        1.7363761689
Mg            4.1072615998        2.1209803511        1.4316468050
Mg            7.2818253651        3.7573410043        2.5330216219
Si            1.7976724882        0.9251102330        0.6264971258
Si            9.5914144766        4.9532111224        3.3381713011



     Writing config-only to output data dir ./Aknew_.save/
     NEW-OLD atomic charge density approx. for the potential

     Check: negative core charge=   -0.000002

     total cpu time spent up to now is      201.6 secs

     per-process dynamical memory:   160.6 Mb

     Self-consistent Calculation

     iteration #  1     ecut=    80.00 Ry     beta= 0.70
     Davidson diagonalization with overlap
     ethr =  1.00E-06,  avg # of iterations =  4.8

     total cpu time spent up to now is      228.8 secs

     total energy              =    -469.47154610 Ry
     estimated scf accuracy    <       0.00051798 Ry

     iteration #  2     ecut=    80.00 Ry     beta= 0.70
     Davidson diagonalization with overlap
     ethr =  8.09E-07,  avg # of iterations =  2.0

     total cpu time spent up to now is      244.9 secs

     total energy              =    -469.47170155 Ry
     estimated scf accuracy    <       0.00007932 Ry

     iteration #  3     ecut=    80.00 Ry     beta= 0.70
     Davidson diagonalization with overlap
     ethr =  1.24E-07,  avg # of iterations =  2.9

     total cpu time spent up to now is      261.2 secs

     total energy              =    -469.47172036 Ry
     estimated scf accuracy    <       0.00000126 Ry

     iteration #  4     ecut=    80.00 Ry     beta= 0.70
     Davidson diagonalization with overlap
     ethr =  1.98E-09,  avg # of iterations =  7.5

     total cpu time spent up to now is      294.7 secs

     End of self-consistent calculation

     Number of k-points >= 100: set verbosity='high' to print the bands.

     highest occupied level (ev):     7.9197

!    total energy              =    -469.47172306 Ry
     estimated scf accuracy    <       0.00000050 Ry

     The total energy is the sum of the following terms:
     one-electron contribution =    -215.77866663 Ry
     hartree contribution      =     141.72288441 Ry
     xc contribution           =     -91.40139928 Ry
     ewald contribution        =    -304.01454155 Ry

     convergence has been achieved in   4 iterations

     Forces acting on atoms (cartesian axes, Ry/au):

     atom    1 type  1   force =     0.00663654   -0.00241538   -0.00083650
     atom    2 type  1   force =     0.00689839    0.00032518    0.00233457
     atom    3 type  1   force =     0.00300254    0.00103968   -0.00187859
     atom    4 type  1   force =    -0.00663654    0.00241538    0.00083650
     atom    5 type  1   force =    -0.00689839   -0.00032518   -0.00233457
     atom    6 type  1   force =    -0.00300254   -0.00103968    0.00187859
     atom    7 type  2   force =    -0.00207924    0.00172070    0.00327557
     atom    8 type  2   force =     0.00207924   -0.00172070   -0.00327557
     atom    9 type  3   force =    -0.00371988   -0.00142499   -0.00141387
     atom   10 type  3   force =     0.00371988    0.00142499    0.00141387

     Total force =     0.017506     Total SCF correction =     0.003343
     SCF correction compared to forces is large: reduce conv_thr to get better values


     Computing stress (Cartesian axis) and pressure

          total   stress  (Ry/bohr**3)                   (kbar)     P=       61.89
   0.00081057   0.00001715  -0.00003854          119.24        2.52       -5.67
   0.00001715   0.00020428   0.00004321            2.52       30.05        6.36
  -0.00003854   0.00004321   0.00024727           -5.67        6.36       36.37

     Energy error            =      1.4E-03 Ry
     Gradient error          =      6.9E-03 Ry/Bohr

     number of scf cycles    =   2
     number of bfgs steps    =   1

     energy             old  =    -469.4703049874 Ry
     energy             new  =    -469.4717230640 Ry

     CASE: energy            _new < energy            _old

     new trust radius        =       0.0128895486 bohr
     new conv_thr            =       0.0000000690 Ry


ATOMIC_POSITIONS (angstrom)
O             6.5220012313        4.4066245829        0.8086330632
O             5.7838444835        3.9340290792        3.7886267716
O             7.3313263477        1.7767063645        2.2267925640
O             4.8670857336        1.4716967725        3.1560353637
O             5.6052424813        1.9442922763        0.1760416553
O             4.0577606172        4.1016149909        1.7378758629
Mg            4.1056173729        2.1224064362        1.4343588691
Mg            7.2834695920        3.7559149192        2.5303095578
Si            1.7946636897        0.9237076293        0.6254179496
Si            9.5944232751        4.9546137261        3.3392504773



     Writing config-only to output data dir ./Aknew_.save/
     NEW-OLD atomic charge density approx. for the potential

     Check: negative core charge=   -0.000002

     total cpu time spent up to now is      307.5 secs

     per-process dynamical memory:   160.6 Mb

     Self-consistent Calculation

     iteration #  1     ecut=    80.00 Ry     beta= 0.70
     Davidson diagonalization with overlap
     ethr =  1.00E-06,  avg # of iterations =  6.7

     total cpu time spent up to now is      334.3 secs

     total energy              =    -469.47197386 Ry
     estimated scf accuracy    <       0.00014666 Ry

     iteration #  2     ecut=    80.00 Ry     beta= 0.70
     Davidson diagonalization with overlap
     ethr =  2.29E-07,  avg # of iterations =  2.1

     total cpu time spent up to now is      350.7 secs

     total energy              =    -469.47201576 Ry
     estimated scf accuracy    <       0.00001957 Ry

     iteration #  3     ecut=    80.00 Ry     beta= 0.70
     Davidson diagonalization with overlap
     ethr =  3.06E-08,  avg # of iterations =  3.6

     total cpu time spent up to now is      368.3 secs

     total energy              =    -469.47202140 Ry
     estimated scf accuracy    <       0.00000049 Ry

     iteration #  4     ecut=    80.00 Ry     beta= 0.70
     Davidson diagonalization with overlap
     ethr =  7.70E-10,  avg # of iterations =  4.5

     total cpu time spent up to now is      388.2 secs

     total energy              =    -469.47202160 Ry
     estimated scf accuracy    <       0.00000011 Ry

     iteration #  5     ecut=    80.00 Ry     beta= 0.70
     Davidson diagonalization with overlap
     ethr =  1.64E-10,  avg # of iterations =  3.1

     total cpu time spent up to now is      405.8 secs

     End of self-consistent calculation

     Number of k-points >= 100: set verbosity='high' to print the bands.

     highest occupied level (ev):     7.9141

!    total energy              =    -469.47202162 Ry
     estimated scf accuracy    <       0.00000002 Ry

     The total energy is the sum of the following terms:
     one-electron contribution =    -215.84072022 Ry
     hartree contribution      =     141.76348083 Ry
     xc contribution           =     -91.38910759 Ry
     ewald contribution        =    -304.00567464 Ry

     convergence has been achieved in   5 iterations

     Forces acting on atoms (cartesian axes, Ry/au):

     atom    1 type  1   force =     0.00120818   -0.00160657   -0.00231144
     atom    2 type  1   force =    -0.00038261   -0.00012222    0.00144375
     atom    3 type  1   force =    -0.00011109   -0.00217041   -0.00188835
     atom    4 type  1   force =    -0.00120818    0.00160657    0.00231144
     atom    5 type  1   force =     0.00038261    0.00012222   -0.00144375
     atom    6 type  1   force =     0.00011109    0.00217041    0.00188835
     atom    7 type  2   force =    -0.00194414    0.00052760    0.00070337
     atom    8 type  2   force =     0.00194414   -0.00052760   -0.00070337
     atom    9 type  3   force =    -0.00222823   -0.00006717   -0.00136372
     atom   10 type  3   force =     0.00222823    0.00006717    0.00136372

     Total force =     0.007912     Total SCF correction =     0.000141


     Computing stress (Cartesian axis) and pressure

          total   stress  (Ry/bohr**3)                   (kbar)     P=       57.32
   0.00073847   0.00000867  -0.00004568          108.63        1.28       -6.72
   0.00000867   0.00019467   0.00004592            1.28       28.64        6.75
  -0.00004568   0.00004592   0.00023585           -6.72        6.75       34.70

     Energy error            =      3.0E-04 Ry
     Gradient error          =      2.3E-03 Ry/Bohr

     number of scf cycles    =   3
     number of bfgs steps    =   2

     energy             old  =    -469.4717230640 Ry
     energy             new  =    -469.4720216222 Ry

     CASE: energy            _new < energy            _old

     new trust radius        =       0.0053091352 bohr
     new conv_thr            =       0.0000000231 Ry


ATOMIC_POSITIONS (angstrom)
O             6.5239825852        4.4052803138        0.8071632613
O             5.7851996356        3.9339924459        3.7898725729
O             7.3318701378        1.7756767808        2.2253462818
O             4.8651043797        1.4730410416        3.1575051656
O             5.6038873292        1.9443289096        0.1747958540
O             4.0572168271        4.1026445746        1.7393221451
Mg            4.1041243614        2.1229877433        1.4352667533
Mg            7.2849626035        3.7553336121        2.5294016736
Si            1.7927555822        0.9232914422        0.6244064028
Si            9.5963313826        4.9550299132        3.3402620241



     Writing config-only to output data dir ./Aknew_.save/
     NEW-OLD atomic charge density approx. for the potential

     Check: negative core charge=   -0.000002

     total cpu time spent up to now is      419.4 secs

     per-process dynamical memory:   160.6 Mb

     Self-consistent Calculation

     iteration #  1     ecut=    80.00 Ry     beta= 0.70
     Davidson diagonalization with overlap
     ethr =  1.00E-06,  avg # of iterations =  4.0

     Threshold (ethr) on eigenvalues was too large:
     Diagonalizing with lowered threshold

     Davidson diagonalization with overlap
     ethr =  2.41E-08,  avg # of iterations =  5.4

     total cpu time spent up to now is      463.7 secs

     total energy              =    -469.47208322 Ry
     estimated scf accuracy    <       0.00001830 Ry

     iteration #  2     ecut=    80.00 Ry     beta= 0.70
     Davidson diagonalization with overlap
     ethr =  2.86E-08,  avg # of iterations =  2.0

     total cpu time spent up to now is      480.7 secs

     total energy              =    -469.47208626 Ry
     estimated scf accuracy    <       0.00000081 Ry

     iteration #  3     ecut=    80.00 Ry     beta= 0.70
     Davidson diagonalization with overlap
     ethr =  1.27E-09,  avg # of iterations =  2.8

     total cpu time spent up to now is      498.4 secs

     total energy              =    -469.47208645 Ry
     estimated scf accuracy    <       0.00000014 Ry

     iteration #  4     ecut=    80.00 Ry     beta= 0.70
     Davidson diagonalization with overlap
     ethr =  2.15E-10,  avg # of iterations =  3.2

     total cpu time spent up to now is      516.2 secs

     End of self-consistent calculation

     Number of k-points >= 100: set verbosity='high' to print the bands.

     highest occupied level (ev):     7.9139

!    total energy              =    -469.47208648 Ry
     estimated scf accuracy    <       0.00000002 Ry

     The total energy is the sum of the following terms:
     one-electron contribution =    -215.83583688 Ry
     hartree contribution      =     141.76258354 Ry
     xc contribution           =     -91.38815744 Ry
     ewald contribution        =    -304.01067570 Ry

     convergence has been achieved in   4 iterations

     Forces acting on atoms (cartesian axes, Ry/au):

     atom    1 type  1   force =    -0.00000579   -0.00079351   -0.00147276
     atom    2 type  1   force =    -0.00106624   -0.00028863    0.00064244
     atom    3 type  1   force =    -0.00045694   -0.00178640   -0.00136429
     atom    4 type  1   force =     0.00000579    0.00079351    0.00147276
     atom    5 type  1   force =     0.00106624    0.00028863   -0.00064244
     atom    6 type  1   force =     0.00045694    0.00178640    0.00136429
     atom    7 type  2   force =    -0.00133204    0.00023659    0.00007351
     atom    8 type  2   force =     0.00133204   -0.00023659   -0.00007351
     atom    9 type  3   force =    -0.00097816    0.00011768   -0.00067318
     atom   10 type  3   force =     0.00097816   -0.00011768    0.00067318

     Total force =     0.005090     Total SCF correction =     0.000154


     Computing stress (Cartesian axis) and pressure

          total   stress  (Ry/bohr**3)                   (kbar)     P=       57.08
   0.00072411   0.00000924  -0.00004381          106.52        1.36       -6.44
   0.00000924   0.00020165   0.00004956            1.36       29.66        7.29
  -0.00004381   0.00004956   0.00023834           -6.44        7.29       35.06

     Energy error            =      6.5E-05 Ry
     Gradient error          =      1.8E-03 Ry/Bohr

     number of scf cycles    =   4
     number of bfgs steps    =   3

     energy             old  =    -469.4720216222 Ry
     energy             new  =    -469.4720864792 Ry

     CASE: energy            _new < energy            _old

     new trust radius        =       0.0046532995 bohr
     new conv_thr            =       0.0000000100 Ry


ATOMIC_POSITIONS (angstrom)
O             6.5251691886        4.4040376626        0.8054453075
O             5.7855205971        3.9337268779        3.7909535978
O             7.3319428778        1.7739708835        2.2235719831
O             4.8639177763        1.4742836928        3.1592231194
O             5.6035663677        1.9445944776        0.1737148291
O             4.0571440871        4.1043504719        1.7410964438
Mg            4.1023684023        2.1234873723        1.4358030944
Mg            7.2867185626        3.7548339831        2.5288653325
Si            1.7911179047        0.9230626592        0.6234643761
Si            9.5979690601        4.9552586962        3.3412040508



     Writing config-only to output data dir ./Aknew_.save/
     NEW-OLD atomic charge density approx. for the potential

     Check: negative core charge=   -0.000002

     total cpu time spent up to now is      529.1 secs

     per-process dynamical memory:   160.6 Mb

     Self-consistent Calculation

     iteration #  1     ecut=    80.00 Ry     beta= 0.70
     Davidson diagonalization with overlap
     ethr =  1.00E-06,  avg # of iterations =  4.0

     Threshold (ethr) on eigenvalues was too large:
     Diagonalizing with lowered threshold

     Davidson diagonalization with overlap
     ethr =  2.27E-08,  avg # of iterations =  5.2

     total cpu time spent up to now is      573.1 secs

     total energy              =    -469.47211252 Ry
     estimated scf accuracy    <       0.00001716 Ry

     iteration #  2     ecut=    80.00 Ry     beta= 0.70
     Davidson diagonalization with overlap
     ethr =  2.68E-08,  avg # of iterations =  2.0

     total cpu time spent up to now is      588.9 secs

     total energy              =    -469.47211546 Ry
     estimated scf accuracy    <       0.00000102 Ry

     iteration #  3     ecut=    80.00 Ry     beta= 0.70
     Davidson diagonalization with overlap
     ethr =  1.59E-09,  avg # of iterations =  2.8

     total cpu time spent up to now is      605.7 secs

     total energy              =    -469.47211570 Ry
     estimated scf accuracy    <       0.00000021 Ry

     iteration #  4     ecut=    80.00 Ry     beta= 0.70
     Davidson diagonalization with overlap
     ethr =  3.29E-10,  avg # of iterations =  3.0

     total cpu time spent up to now is      623.8 secs

     total energy              =    -469.47211576 Ry
     estimated scf accuracy    <       0.00000002 Ry

     iteration #  5     ecut=    80.00 Ry     beta= 0.70
     Davidson diagonalization with overlap
     ethr =  2.42E-11,  avg # of iterations =  4.6

     total cpu time spent up to now is      644.1 secs

     End of self-consistent calculation

     Number of k-points >= 100: set verbosity='high' to print the bands.

     highest occupied level (ev):     7.9149

!    total energy              =    -469.47211576 Ry
     estimated scf accuracy    <          1.3E-09 Ry

     The total energy is the sum of the following terms:
     one-electron contribution =    -215.82413497 Ry
     hartree contribution      =     141.75565531 Ry
     xc contribution           =     -91.38954088 Ry
     ewald contribution        =    -304.01409521 Ry

     convergence has been achieved in   5 iterations

     Forces acting on atoms (cartesian axes, Ry/au):

     atom    1 type  1   force =    -0.00025945   -0.00000322   -0.00012077
     atom    2 type  1   force =    -0.00042554   -0.00027526   -0.00018959
     atom    3 type  1   force =    -0.00015785   -0.00040875   -0.00047654
     atom    4 type  1   force =     0.00025945    0.00000322    0.00012077
     atom    5 type  1   force =     0.00042554    0.00027526    0.00018959
     atom    6 type  1   force =     0.00015785    0.00040875    0.00047654
     atom    7 type  2   force =    -0.00043581    0.00008282   -0.00030832
     atom    8 type  2   force =     0.00043581   -0.00008282    0.00030832
     atom    9 type  3   force =     0.00014860    0.00014244    0.00005419
     atom   10 type  3   force =    -0.00014860   -0.00014244   -0.00005419

     Total force =     0.001504     Total SCF correction =     0.000121


     Computing stress (Cartesian axis) and pressure

          total   stress  (Ry/bohr**3)                   (kbar)     P=       57.51
   0.00072007   0.00001253  -0.00003984          105.93        1.84       -5.86
   0.00001253   0.00021122   0.00005394            1.84       31.07        7.93
  -0.00003984   0.00005394   0.00024163           -5.86        7.93       35.55

     Energy error            =      2.9E-05 Ry
     Gradient error          =      4.8E-04 Ry/Bohr

     bfgs converged in   5 scf cycles and   4 bfgs steps
     (criteria: energy <  1.0E-04 Ry, force <  1.0E-03 Ry/Bohr)

     End of BFGS Geometry Optimization

     Final energy             =    -469.4721157601 Ry

     File ./Aknew_.bfgs deleted, as requested
Begin final coordinates

ATOMIC_POSITIONS (angstrom)
O             6.5251691886        4.4040376626        0.8054453075
O             5.7855205971        3.9337268779        3.7909535978
O             7.3319428778        1.7739708835        2.2235719831
O             4.8639177763        1.4742836928        3.1592231194
O             5.6035663677        1.9445944776        0.1737148291
O             4.0571440871        4.1043504719        1.7410964438
Mg            4.1023684023        2.1234873723        1.4358030944
Mg            7.2867185626        3.7548339831        2.5288653325
Si            1.7911179047        0.9230626592        0.6234643761
Si            9.5979690601        4.9552586962        3.3412040508
End final coordinates



     Writing all to output data dir ./Aknew_.save/

     init_run     :      8.72s CPU      8.90s WALL (       1 calls)
     electrons    :    576.62s CPU    581.83s WALL (       5 calls)
     update_pot   :     10.41s CPU     10.46s WALL (       4 calls)
     forces       :     18.70s CPU     18.79s WALL (       5 calls)
     stress       :     33.91s CPU     34.03s WALL (       5 calls)

     Called by init_run:
     wfcinit      :      5.18s CPU      5.30s WALL (       1 calls)
     potinit      :      1.11s CPU      1.14s WALL (       1 calls)
     hinit0       :      2.35s CPU      2.36s WALL (       1 calls)

     Called by electrons:
     c_bands      :    512.43s CPU    516.54s WALL (      30 calls)
     sum_band     :     59.18s CPU     59.74s WALL (      30 calls)
     v_of_rho     :      3.77s CPU      4.29s WALL (      33 calls)
     newd         :      1.11s CPU      1.20s WALL (      33 calls)
     mix_rho      :      0.16s CPU      0.16s WALL (      30 calls)

     Called by c_bands:
     init_us_2    :     11.50s CPU     11.54s WALL (    8946 calls)
     init_us_2:cp :     11.46s CPU     11.51s WALL (    8946 calls)
     cegterg      :    458.83s CPU    462.83s WALL (    3780 calls)

     Called by *egterg:
     cdiaghg      :     20.92s CPU     21.05s WALL (   16459 calls)
     h_psi        :    330.02s CPU    333.65s WALL (   17341 calls)
     s_psi        :     15.85s CPU     15.89s WALL (   17341 calls)
     g_psi        :      2.07s CPU      2.08s WALL (   13435 calls)

     Called by h_psi:
     h_psi:calbec :     29.25s CPU     29.39s WALL (   17341 calls)
     vloc_psi     :    277.18s CPU    280.60s WALL (   17341 calls)
     add_vuspsi   :     18.64s CPU     18.69s WALL (   17341 calls)

     General routines
     calbec       :     42.06s CPU     42.28s WALL (   24271 calls)
     fft          :      2.69s CPU      2.82s WALL (     550 calls)
     ffts         :      0.24s CPU      0.24s WALL (      63 calls)
     fftw         :    279.07s CPU    282.35s WALL (  902436 calls)
     interpolate  :      0.41s CPU      0.41s WALL (      33 calls)

     Parallel routines

     PWSCF        :  10m49.36s CPU  10m55.40s WALL


   This run was terminated on:  10:52:12   4Aug2025            

=------------------------------------------------------------------------------=
   JOB DONE.
=------------------------------------------------------------------------------=
