 O Mg Si 
 1.0000000000000000
     2.7609683910000000   -0.0000000000000000    4.5720407789999999
    -1.3804841950000000    2.3910687660000001    4.5720407789999999
    -1.3804841950000000   -2.3910687660000001    4.5720407789999999
 O   Mg  Si 
   6   2   2
Direct
  0.5621324751786023 -0.0451432194751992  0.2036334360348414
  0.2036334359721687  0.5621324752020639 -0.0451432194359881
 -0.0451432196106753  0.2036334361104542  0.5621324752384655
 -0.5621324751786023  0.0451432194751992 -0.2036334360348414
 -0.2036334359721687 -0.5621324752020639  0.0451432194359881
  0.0451432196106753 -0.2036334361104542 -0.5621324752384655
  0.3606520311109669  0.3606520312415922  0.3606520312415921
 -0.3606520311109669 -0.3606520312415922 -0.3606520312415921
  0.1579469750231707  0.1579469750803779  0.1579469750803779
 -0.1579469750231707 -0.1579469750803779 -0.1579469750803779
