&CONTROL
   calculation      = 'relax'
   tstress          = .true.
   tprnfor          = .true.
   prefix           = 'Aknew_'
/
&SYSTEM
   ecutwfc          = 80
   ecutrho          = 600
   ntyp             = 3
   nat              = 10
   ibrav            = 0
/
&ELECTRONS
   conv_thr         = 1e-06
   mixing_beta      = 0.7
/
&IONS
   ion_dynamics     = 'bfgs'
/
&CELL
   cell_dynamics    = 'bfgs'
   press            = 150
   press_conv_thr   = 0.05
/

ATOMIC_SPECIES
O 15.999 O.pbe-nl-rrkjus_psl.1.0.0.UPF
Mg 24.305 Mg.pbe-spnl-rrkjus_psl.1.0.0.UPF
Si 28.085 Si.pbe-nl-rrkjus_psl.1.0.0.UPF

K_POINTS automatic
9 10 10  0 0 0

CELL_PARAMETERS angstrom
5.49006803962708 0.00000000000000 0.00000000000000
3.28679514418079 4.26939744117450 0.00000000000000
3.28679514418079 1.59882118281465 3.95872774210232

ATOMIC_POSITIONS angstrom
O 6.8951322845 4.4025291859 0.8070890629 
O 6.1055772958 3.9269989110 3.7799299681 
O 7.7601441707 1.7693345631 2.2257209737 
O 5.1685260435 1.4656894380 3.1516386792 
O 5.9580810322 1.9412197130 0.1787977740 
O 4.3035141573 4.0988840609 1.7330067684 
Mg 4.3490826415 2.1155579063 1.4271652626 
Mg 7.7145756865 3.7526607177 2.5315624795 
Si 1.9045452843 0.9264426929 0.6249825756 
Si 10.1591130437 4.9417759311 3.3337451665 

